2000
Lattice="28.6595172515 0 0 0 28.6595172515 0 0 0 28.6595172515" Properties=species:S:1:pos:R:3 pbc="T T T" case=zhou_fe_bcc
Fe 0.0000000000 0.0000000000 0.0000000000
Fe 1.4329758626 1.4329758626 1.4329758626
Fe 0.0000000000 0.0000000000 2.8659517252
Fe 1.4329758626 1.4329758626 4.2989275877
Fe 0.0000000000 0.0000000000 5.7319034503
Fe 1.4329758626 1.4329758626 7.1648793129
Fe 0.0000000000 0.0000000000 8.5978551755
Fe 1.4329758626 1.4329758626 10.0308310380
Fe 0.0000000000 0.0000000000 11.4638069006
Fe 1.4329758626 1.4329758626 12.8967827632
Fe 0.0000000000 0.0000000000 14.3297586258
Fe 1.4329758626 1.4329758626 15.7627344883
Fe 0.0000000000 0.0000000000 17.1957103509
Fe 1.4329758626 1.4329758626 18.6286862135
Fe 0.0000000000 0.0000000000 20.0616620761
Fe 1.4329758626 1.4329758626 21.4946379386
Fe 0.0000000000 0.0000000000 22.9276138012
Fe 1.4329758626 1.4329758626 24.3605896638
Fe 0.0000000000 0.0000000000 25.7935655264
Fe 1.4329758626 1.4329758626 27.2265413889
Fe 0.0000000000 2.8659517252 0.0000000000
Fe 1.4329758626 4.2989275877 1.4329758626
Fe 0.0000000000 2.8659517252 2.8659517252
Fe 1.4329758626 4.2989275877 4.2989275877
Fe 0.0000000000 2.8659517252 5.7319034503
Fe 1.4329758626 4.2989275877 7.1648793129
Fe 0.0000000000 2.8659517252 8.5978551755
Fe 1.4329758626 4.2989275877 10.0308310380
Fe 0.0000000000 2.8659517252 11.4638069006
Fe 1.4329758626 4.2989275877 12.8967827632
Fe 0.0000000000 2.8659517252 14.3297586258
Fe 1.4329758626 4.2989275877 15.7627344883
Fe 0.0000000000 2.8659517252 17.1957103509
Fe 1.4329758626 4.2989275877 18.6286862135
Fe 0.0000000000 2.8659517252 20.0616620761
Fe 1.4329758626 4.2989275877 21.4946379386
Fe 0.0000000000 2.8659517252 22.9276138012
Fe 1.4329758626 4.2989275877 24.3605896638
Fe 0.0000000000 2.8659517252 25.7935655264
Fe 1.4329758626 4.2989275877 27.2265413889
Fe 0.0000000000 5.7319034503 0.0000000000
Fe 1.4329758626 7.1648793129 1.4329758626
Fe 0.0000000000 5.7319034503 2.8659517252
Fe 1.4329758626 7.1648793129 4.2989275877
Fe 0.0000000000 5.7319034503 5.7319034503
Fe 1.4329758626 7.1648793129 7.1648793129
Fe 0.0000000000 5.7319034503 8.5978551755
Fe 1.4329758626 7.1648793129 10.0308310380
Fe 0.0000000000 5.7319034503 11.4638069006
Fe 1.4329758626 7.1648793129 12.8967827632
Fe 0.0000000000 5.7319034503 14.3297586258
Fe 1.4329758626 7.1648793129 15.7627344883
Fe 0.0000000000 5.7319034503 17.1957103509
Fe 1.4329758626 7.1648793129 18.6286862135
Fe 0.0000000000 5.7319034503 20.0616620761
Fe 1.4329758626 7.1648793129 21.4946379386
Fe 0.0000000000 5.7319034503 22.9276138012
Fe 1.4329758626 7.1648793129 24.3605896638
Fe 0.0000000000 5.7319034503 25.7935655264
Fe 1.4329758626 7.1648793129 27.2265413889
Fe 0.0000000000 8.5978551755 0.0000000000
Fe 1.4329758626 10.0308310380 1.4329758626
Fe 0.0000000000 8.5978551755 2.8659517252
Fe 1.4329758626 10.0308310380 4.2989275877
Fe 0.0000000000 8.5978551755 5.7319034503
Fe 1.4329758626 10.0308310380 7.1648793129
Fe 0.0000000000 8.5978551755 8.5978551755
Fe 1.4329758626 10.0308310380 10.0308310380
Fe 0.0000000000 8.5978551755 11.4638069006
Fe 1.4329758626 10.0308310380 12.8967827632
Fe 0.0000000000 8.5978551755 14.3297586258
Fe 1.4329758626 10.0308310380 15.7627344883
Fe 0.0000000000 8.5978551755 17.1957103509
Fe 1.4329758626 10.0308310380 18.6286862135
Fe 0.0000000000 8.5978551755 20.0616620761
Fe 1.4329758626 10.0308310380 21.4946379386
Fe 0.0000000000 8.5978551755 22.9276138012
Fe 1.4329758626 10.0308310380 24.3605896638
Fe 0.0000000000 8.5978551755 25.7935655264
Fe 1.4329758626 10.0308310380 27.2265413889
Fe 0.0000000000 11.4638069006 0.0000000000
Fe 1.4329758626 12.8967827632 1.4329758626
Fe 0.0000000000 11.4638069006 2.8659517252
Fe 1.4329758626 12.8967827632 4.2989275877
Fe 0.0000000000 11.4638069006 5.7319034503
Fe 1.4329758626 12.8967827632 7.1648793129
Fe 0.0000000000 11.4638069006 8.5978551755
Fe 1.4329758626 12.8967827632 10.0308310380
Fe 0.0000000000 11.4638069006 11.4638069006
Fe 1.4329758626 12.8967827632 12.8967827632
Fe 0.0000000000 11.4638069006 14.3297586258
Fe 1.4329758626 12.8967827632 15.7627344883
Fe 0.0000000000 11.4638069006 17.1957103509
Fe 1.4329758626 12.8967827632 18.6286862135
Fe 0.0000000000 11.4638069006 20.0616620761
Fe 1.4329758626 12.8967827632 21.4946379386
Fe 0.0000000000 11.4638069006 22.9276138012
Fe 1.4329758626 12.8967827632 24.3605896638
Fe 0.0000000000 11.4638069006 25.7935655264
Fe 1.4329758626 12.8967827632 27.2265413889
Fe 0.0000000000 14.3297586258 0.0000000000
Fe 1.4329758626 15.7627344883 1.4329758626
Fe 0.0000000000 14.3297586258 2.8659517252
Fe 1.4329758626 15.7627344883 4.2989275877
Fe 0.0000000000 14.3297586258 5.7319034503
Fe 1.4329758626 15.7627344883 7.1648793129
Fe 0.0000000000 14.3297586258 8.5978551755
Fe 1.4329758626 15.7627344883 10.0308310380
Fe 0.0000000000 14.3297586258 11.4638069006
Fe 1.4329758626 15.7627344883 12.8967827632
Fe 0.0000000000 14.3297586258 14.3297586258
Fe 1.4329758626 15.7627344883 15.7627344883
Fe 0.0000000000 14.3297586258 17.1957103509
Fe 1.4329758626 15.7627344883 18.6286862135
Fe 0.0000000000 14.3297586258 20.0616620761
Fe 1.4329758626 15.7627344883 21.4946379386
Fe 0.0000000000 14.3297586258 22.9276138012
Fe 1.4329758626 15.7627344883 24.3605896638
Fe 0.0000000000 14.3297586258 25.7935655264
Fe 1.4329758626 15.7627344883 27.2265413889
Fe 0.0000000000 17.1957103509 0.0000000000
Fe 1.4329758626 18.6286862135 1.4329758626
Fe 0.0000000000 17.1957103509 2.8659517252
Fe 1.4329758626 18.6286862135 4.2989275877
Fe 0.0000000000 17.1957103509 5.7319034503
Fe 1.4329758626 18.6286862135 7.1648793129
Fe 0.0000000000 17.1957103509 8.5978551755
Fe 1.4329758626 18.6286862135 10.0308310380
Fe 0.0000000000 17.1957103509 11.4638069006
Fe 1.4329758626 18.6286862135 12.8967827632
Fe 0.0000000000 17.1957103509 14.3297586258
Fe 1.4329758626 18.6286862135 15.7627344883
Fe 0.0000000000 17.1957103509 17.1957103509
Fe 1.4329758626 18.6286862135 18.6286862135
Fe 0.0000000000 17.1957103509 20.0616620761
Fe 1.4329758626 18.6286862135 21.4946379386
Fe 0.0000000000 17.1957103509 22.9276138012
Fe 1.4329758626 18.6286862135 24.3605896638
Fe 0.0000000000 17.1957103509 25.7935655264
Fe 1.4329758626 18.6286862135 27.2265413889
Fe 0.0000000000 20.0616620761 0.0000000000
Fe 1.4329758626 21.4946379386 1.4329758626
Fe 0.0000000000 20.0616620761 2.8659517252
Fe 1.4329758626 21.4946379386 4.2989275877
Fe 0.0000000000 20.0616620761 5.7319034503
Fe 1.4329758626 21.4946379386 7.1648793129
Fe 0.0000000000 20.0616620761 8.5978551755
Fe 1.4329758626 21.4946379386 10.0308310380
Fe 0.0000000000 20.0616620761 11.4638069006
Fe 1.4329758626 21.4946379386 12.8967827632
Fe 0.0000000000 20.0616620761 14.3297586258
Fe 1.4329758626 21.4946379386 15.7627344883
Fe 0.0000000000 20.0616620761 17.1957103509
Fe 1.4329758626 21.4946379386 18.6286862135
Fe 0.0000000000 20.0616620761 20.0616620761
Fe 1.4329758626 21.4946379386 21.4946379386
Fe 0.0000000000 20.0616620761 22.9276138012
Fe 1.4329758626 21.4946379386 24.3605896638
Fe 0.0000000000 20.0616620761 25.7935655264
Fe 1.4329758626 21.4946379386 27.2265413889
Fe 0.0000000000 22.9276138012 0.0000000000
Fe 1.4329758626 24.3605896638 1.4329758626
Fe 0.0000000000 22.9276138012 2.8659517252
Fe 1.4329758626 24.3605896638 4.2989275877
Fe 0.0000000000 22.9276138012 5.7319034503
Fe 1.4329758626 24.3605896638 7.1648793129
Fe 0.0000000000 22.9276138012 8.5978551755
Fe 1.4329758626 24.3605896638 10.0308310380
Fe 0.0000000000 22.9276138012 11.4638069006
Fe 1.4329758626 24.3605896638 12.8967827632
Fe 0.0000000000 22.9276138012 14.3297586258
Fe 1.4329758626 24.3605896638 15.7627344883
Fe 0.0000000000 22.9276138012 17.1957103509
Fe 1.4329758626 24.3605896638 18.6286862135
Fe 0.0000000000 22.9276138012 20.0616620761
Fe 1.4329758626 24.3605896638 21.4946379386
Fe 0.0000000000 22.9276138012 22.9276138012
Fe 1.4329758626 24.3605896638 24.3605896638
Fe 0.0000000000 22.9276138012 25.7935655264
Fe 1.4329758626 24.3605896638 27.2265413889
Fe 0.0000000000 25.7935655264 0.0000000000
Fe 1.4329758626 27.2265413889 1.4329758626
Fe 0.0000000000 25.7935655264 2.8659517252
Fe 1.4329758626 27.2265413889 4.2989275877
Fe 0.0000000000 25.7935655264 5.7319034503
Fe 1.4329758626 27.2265413889 7.1648793129
Fe 0.0000000000 25.7935655264 8.5978551755
Fe 1.4329758626 27.2265413889 10.0308310380
Fe 0.0000000000 25.7935655264 11.4638069006
Fe 1.4329758626 27.2265413889 12.8967827632
Fe 0.0000000000 25.7935655264 14.3297586258
Fe 1.4329758626 27.2265413889 15.7627344883
Fe 0.0000000000 25.7935655264 17.1957103509
Fe 1.4329758626 27.2265413889 18.6286862135
Fe 0.0000000000 25.7935655264 20.0616620761
Fe 1.4329758626 27.2265413889 21.4946379386
Fe 0.0000000000 25.7935655264 22.9276138012
Fe 1.4329758626 27.2265413889 24.3605896638
Fe 0.0000000000 25.7935655264 25.7935655264
Fe 1.4329758626 27.2265413889 27.2265413889
Fe 2.8659517252 0.0000000000 0.0000000000
Fe 4.2989275877 1.4329758626 1.4329758626
Fe 2.8659517252 0.0000000000 2.8659517252
Fe 4.2989275877 1.4329758626 4.2989275877
Fe 2.8659517252 0.0000000000 5.7319034503
Fe 4.2989275877 1.4329758626 7.1648793129
Fe 2.8659517252 0.0000000000 8.5978551755
Fe 4.2989275877 1.4329758626 10.0308310380
Fe 2.8659517252 0.0000000000 11.4638069006
Fe 4.2989275877 1.4329758626 12.8967827632
Fe 2.8659517252 0.0000000000 14.3297586258
Fe 4.2989275877 1.4329758626 15.7627344883
Fe 2.8659517252 0.0000000000 17.1957103509
Fe 4.2989275877 1.4329758626 18.6286862135
Fe 2.8659517252 0.0000000000 20.0616620761
Fe 4.2989275877 1.4329758626 21.4946379386
Fe 2.8659517252 0.0000000000 22.9276138012
Fe 4.2989275877 1.4329758626 24.3605896638
Fe 2.8659517252 0.0000000000 25.7935655264
Fe 4.2989275877 1.4329758626 27.2265413889
Fe 2.8659517252 2.8659517252 0.0000000000
Fe 4.2989275877 4.2989275877 1.4329758626
Fe 2.8659517252 2.8659517252 2.8659517252
Fe 4.2989275877 4.2989275877 4.2989275877
Fe 2.8659517252 2.8659517252 5.7319034503
Fe 4.2989275877 4.2989275877 7.1648793129
Fe 2.8659517252 2.8659517252 8.5978551755
Fe 4.2989275877 4.2989275877 10.0308310380
Fe 2.8659517252 2.8659517252 11.4638069006
Fe 4.2989275877 4.2989275877 12.8967827632
Fe 2.8659517252 2.8659517252 14.3297586258
Fe 4.2989275877 4.2989275877 15.7627344883
Fe 2.8659517252 2.8659517252 17.1957103509
Fe 4.2989275877 4.2989275877 18.6286862135
Fe 2.8659517252 2.8659517252 20.0616620761
Fe 4.2989275877 4.2989275877 21.4946379386
Fe 2.8659517252 2.8659517252 22.9276138012
Fe 4.2989275877 4.2989275877 24.3605896638
Fe 2.8659517252 2.8659517252 25.7935655264
Fe 4.2989275877 4.2989275877 27.2265413889
Fe 2.8659517252 5.7319034503 0.0000000000
Fe 4.2989275877 7.1648793129 1.4329758626
Fe 2.8659517252 5.7319034503 2.8659517252
Fe 4.2989275877 7.1648793129 4.2989275877
Fe 2.8659517252 5.7319034503 5.7319034503
Fe 4.2989275877 7.1648793129 7.1648793129
Fe 2.8659517252 5.7319034503 8.5978551755
Fe 4.2989275877 7.1648793129 10.0308310380
Fe 2.8659517252 5.7319034503 11.4638069006
Fe 4.2989275877 7.1648793129 12.8967827632
Fe 2.8659517252 5.7319034503 14.3297586258
Fe 4.2989275877 7.1648793129 15.7627344883
Fe 2.8659517252 5.7319034503 17.1957103509
Fe 4.2989275877 7.1648793129 18.6286862135
Fe 2.8659517252 5.7319034503 20.0616620761
Fe 4.2989275877 7.1648793129 21.4946379386
Fe 2.8659517252 5.7319034503 22.9276138012
Fe 4.2989275877 7.1648793129 24.3605896638
Fe 2.8659517252 5.7319034503 25.7935655264
Fe 4.2989275877 7.1648793129 27.2265413889
Fe 2.8659517252 8.5978551755 0.0000000000
Fe 4.2989275877 10.0308310380 1.4329758626
Fe 2.8659517252 8.5978551755 2.8659517252
Fe 4.2989275877 10.0308310380 4.2989275877
Fe 2.8659517252 8.5978551755 5.7319034503
Fe 4.2989275877 10.0308310380 7.1648793129
Fe 2.8659517252 8.5978551755 8.5978551755
Fe 4.2989275877 10.0308310380 10.0308310380
Fe 2.8659517252 8.5978551755 11.4638069006
Fe 4.2989275877 10.0308310380 12.8967827632
Fe 2.8659517252 8.5978551755 14.3297586258
Fe 4.2989275877 10.0308310380 15.7627344883
Fe 2.8659517252 8.5978551755 17.1957103509
Fe 4.2989275877 10.0308310380 18.6286862135
Fe 2.8659517252 8.5978551755 20.0616620761
Fe 4.2989275877 10.0308310380 21.4946379386
Fe 2.8659517252 8.5978551755 22.9276138012
Fe 4.2989275877 10.0308310380 24.3605896638
Fe 2.8659517252 8.5978551755 25.7935655264
Fe 4.2989275877 10.0308310380 27.2265413889
Fe 2.8659517252 11.4638069006 0.0000000000
Fe 4.2989275877 12.8967827632 1.4329758626
Fe 2.8659517252 11.4638069006 2.8659517252
Fe 4.2989275877 12.8967827632 4.2989275877
Fe 2.8659517252 11.4638069006 5.7319034503
Fe 4.2989275877 12.8967827632 7.1648793129
Fe 2.8659517252 11.4638069006 8.5978551755
Fe 4.2989275877 12.8967827632 10.0308310380
Fe 2.8659517252 11.4638069006 11.4638069006
Fe 4.2989275877 12.8967827632 12.8967827632
Fe 2.8659517252 11.4638069006 14.3297586258
Fe 4.2989275877 12.8967827632 15.7627344883
Fe 2.8659517252 11.4638069006 17.1957103509
Fe 4.2989275877 12.8967827632 18.6286862135
Fe 2.8659517252 11.4638069006 20.0616620761
Fe 4.2989275877 12.8967827632 21.4946379386
Fe 2.8659517252 11.4638069006 22.9276138012
Fe 4.2989275877 12.8967827632 24.3605896638
Fe 2.8659517252 11.4638069006 25.7935655264
Fe 4.2989275877 12.8967827632 27.2265413889
Fe 2.8659517252 14.3297586258 0.0000000000
Fe 4.2989275877 15.7627344883 1.4329758626
Fe 2.8659517252 14.3297586258 2.8659517252
Fe 4.2989275877 15.7627344883 4.2989275877
Fe 2.8659517252 14.3297586258 5.7319034503
Fe 4.2989275877 15.7627344883 7.1648793129
Fe 2.8659517252 14.3297586258 8.5978551755
Fe 4.2989275877 15.7627344883 10.0308310380
Fe 2.8659517252 14.3297586258 11.4638069006
Fe 4.2989275877 15.7627344883 12.8967827632
Fe 2.8659517252 14.3297586258 14.3297586258
Fe 4.2989275877 15.7627344883 15.7627344883
Fe 2.8659517252 14.3297586258 17.1957103509
Fe 4.2989275877 15.7627344883 18.6286862135
Fe 2.8659517252 14.3297586258 20.0616620761
Fe 4.2989275877 15.7627344883 21.4946379386
Fe 2.8659517252 14.3297586258 22.9276138012
Fe 4.2989275877 15.7627344883 24.3605896638
Fe 2.8659517252 14.3297586258 25.7935655264
Fe 4.2989275877 15.7627344883 27.2265413889
Fe 2.8659517252 17.1957103509 0.0000000000
Fe 4.2989275877 18.6286862135 1.4329758626
Fe 2.8659517252 17.1957103509 2.8659517252
Fe 4.2989275877 18.6286862135 4.2989275877
Fe 2.8659517252 17.1957103509 5.7319034503
Fe 4.2989275877 18.6286862135 7.1648793129
Fe 2.8659517252 17.1957103509 8.5978551755
Fe 4.2989275877 18.6286862135 10.0308310380
Fe 2.8659517252 17.1957103509 11.4638069006
Fe 4.2989275877 18.6286862135 12.8967827632
Fe 2.8659517252 17.1957103509 14.3297586258
Fe 4.2989275877 18.6286862135 15.7627344883
Fe 2.8659517252 17.1957103509 17.1957103509
Fe 4.2989275877 18.6286862135 18.6286862135
Fe 2.8659517252 17.1957103509 20.0616620761
Fe 4.2989275877 18.6286862135 21.4946379386
Fe 2.8659517252 17.1957103509 22.9276138012
Fe 4.2989275877 18.6286862135 24.3605896638
Fe 2.8659517252 17.1957103509 25.7935655264
Fe 4.2989275877 18.6286862135 27.2265413889
Fe 2.8659517252 20.0616620761 0.0000000000
Fe 4.2989275877 21.4946379386 1.4329758626
Fe 2.8659517252 20.0616620761 2.8659517252
Fe 4.2989275877 21.4946379386 4.2989275877
Fe 2.8659517252 20.0616620761 5.7319034503
Fe 4.2989275877 21.4946379386 7.1648793129
Fe 2.8659517252 20.0616620761 8.5978551755
Fe 4.2989275877 21.4946379386 10.0308310380
Fe 2.8659517252 20.0616620761 11.4638069006
Fe 4.2989275877 21.4946379386 12.8967827632
Fe 2.8659517252 20.0616620761 14.3297586258
Fe 4.2989275877 21.4946379386 15.7627344883
Fe 2.8659517252 20.0616620761 17.1957103509
Fe 4.2989275877 21.4946379386 18.6286862135
Fe 2.8659517252 20.0616620761 20.0616620761
Fe 4.2989275877 21.4946379386 21.4946379386
Fe 2.8659517252 20.0616620761 22.9276138012
Fe 4.2989275877 21.4946379386 24.3605896638
Fe 2.8659517252 20.0616620761 25.7935655264
Fe 4.2989275877 21.4946379386 27.2265413889
Fe 2.8659517252 22.9276138012 0.0000000000
Fe 4.2989275877 24.3605896638 1.4329758626
Fe 2.8659517252 22.9276138012 2.8659517252
Fe 4.2989275877 24.3605896638 4.2989275877
Fe 2.8659517252 22.9276138012 5.7319034503
Fe 4.2989275877 24.3605896638 7.1648793129
Fe 2.8659517252 22.9276138012 8.5978551755
Fe 4.2989275877 24.3605896638 10.0308310380
Fe 2.8659517252 22.9276138012 11.4638069006
Fe 4.2989275877 24.3605896638 12.8967827632
Fe 2.8659517252 22.9276138012 14.3297586258
Fe 4.2989275877 24.3605896638 15.7627344883
Fe 2.8659517252 22.9276138012 17.1957103509
Fe 4.2989275877 24.3605896638 18.6286862135
Fe 2.8659517252 22.9276138012 20.0616620761
Fe 4.2989275877 24.3605896638 21.4946379386
Fe 2.8659517252 22.9276138012 22.9276138012
Fe 4.2989275877 24.3605896638 24.3605896638
Fe 2.8659517252 22.9276138012 25.7935655264
Fe 4.2989275877 24.3605896638 27.2265413889
Fe 2.8659517252 25.7935655264 0.0000000000
Fe 4.2989275877 27.2265413889 1.4329758626
Fe 2.8659517252 25.7935655264 2.8659517252
Fe 4.2989275877 27.2265413889 4.2989275877
Fe 2.8659517252 25.7935655264 5.7319034503
Fe 4.2989275877 27.2265413889 7.1648793129
Fe 2.8659517252 25.7935655264 8.5978551755
Fe 4.2989275877 27.2265413889 10.0308310380
Fe 2.8659517252 25.7935655264 11.4638069006
Fe 4.2989275877 27.2265413889 12.8967827632
Fe 2.8659517252 25.7935655264 14.3297586258
Fe 4.2989275877 27.2265413889 15.7627344883
Fe 2.8659517252 25.7935655264 17.1957103509
Fe 4.2989275877 27.2265413889 18.6286862135
Fe 2.8659517252 25.7935655264 20.0616620761
Fe 4.2989275877 27.2265413889 21.4946379386
Fe 2.8659517252 25.7935655264 22.9276138012
Fe 4.2989275877 27.2265413889 24.3605896638
Fe 2.8659517252 25.7935655264 25.7935655264
Fe 4.2989275877 27.2265413889 27.2265413889
Fe 5.7319034503 0.0000000000 0.0000000000
Fe 7.1648793129 1.4329758626 1.4329758626
Fe 5.7319034503 0.0000000000 2.8659517252
Fe 7.1648793129 1.4329758626 4.2989275877
Fe 5.7319034503 0.0000000000 5.7319034503
Fe 7.1648793129 1.4329758626 7.1648793129
Fe 5.7319034503 0.0000000000 8.5978551755
Fe 7.1648793129 1.4329758626 10.0308310380
Fe 5.7319034503 0.0000000000 11.4638069006
Fe 7.1648793129 1.4329758626 12.8967827632
Fe 5.7319034503 0.0000000000 14.3297586258
Fe 7.1648793129 1.4329758626 15.7627344883
Fe 5.7319034503 0.0000000000 17.1957103509
Fe 7.1648793129 1.4329758626 18.6286862135
Fe 5.7319034503 0.0000000000 20.0616620761
Fe 7.1648793129 1.4329758626 21.4946379386
Fe 5.7319034503 0.0000000000 22.9276138012
Fe 7.1648793129 1.4329758626 24.3605896638
Fe 5.7319034503 0.0000000000 25.7935655264
Fe 7.1648793129 1.4329758626 27.2265413889
Fe 5.7319034503 2.8659517252 0.0000000000
Fe 7.1648793129 4.2989275877 1.4329758626
Fe 5.7319034503 2.8659517252 2.8659517252
Fe 7.1648793129 4.2989275877 4.2989275877
Fe 5.7319034503 2.8659517252 5.7319034503
Fe 7.1648793129 4.2989275877 7.1648793129
Fe 5.7319034503 2.8659517252 8.5978551755
Fe 7.1648793129 4.2989275877 10.0308310380
Fe 5.7319034503 2.8659517252 11.4638069006
Fe 7.1648793129 4.2989275877 12.8967827632
Fe 5.7319034503 2.8659517252 14.3297586258
Fe 7.1648793129 4.2989275877 15.7627344883
Fe 5.7319034503 2.8659517252 17.1957103509
Fe 7.1648793129 4.2989275877 18.6286862135
Fe 5.7319034503 2.8659517252 20.0616620761
Fe 7.1648793129 4.2989275877 21.4946379386
Fe 5.7319034503 2.8659517252 22.9276138012
Fe 7.1648793129 4.2989275877 24.3605896638
Fe 5.7319034503 2.8659517252 25.7935655264
Fe 7.1648793129 4.2989275877 27.2265413889
Fe 5.7319034503 5.7319034503 0.0000000000
Fe 7.1648793129 7.1648793129 1.4329758626
Fe 5.7319034503 5.7319034503 2.8659517252
Fe 7.1648793129 7.1648793129 4.2989275877
Fe 5.7319034503 5.7319034503 5.7319034503
Fe 7.1648793129 7.1648793129 7.1648793129
Fe 5.7319034503 5.7319034503 8.5978551755
Fe 7.1648793129 7.1648793129 10.0308310380
Fe 5.7319034503 5.7319034503 11.4638069006
Fe 7.1648793129 7.1648793129 12.8967827632
Fe 5.7319034503 5.7319034503 14.3297586258
Fe 7.1648793129 7.1648793129 15.7627344883
Fe 5.7319034503 5.7319034503 17.1957103509
Fe 7.1648793129 7.1648793129 18.6286862135
Fe 5.7319034503 5.7319034503 20.0616620761
Fe 7.1648793129 7.1648793129 21.4946379386
Fe 5.7319034503 5.7319034503 22.9276138012
Fe 7.1648793129 7.1648793129 24.3605896638
Fe 5.7319034503 5.7319034503 25.7935655264
Fe 7.1648793129 7.1648793129 27.2265413889
Fe 5.7319034503 8.5978551755 0.0000000000
Fe 7.1648793129 10.0308310380 1.4329758626
Fe 5.7319034503 8.5978551755 2.8659517252
Fe 7.1648793129 10.0308310380 4.2989275877
Fe 5.7319034503 8.5978551755 5.7319034503
Fe 7.1648793129 10.0308310380 7.1648793129
Fe 5.7319034503 8.5978551755 8.5978551755
Fe 7.1648793129 10.0308310380 10.0308310380
Fe 5.7319034503 8.5978551755 11.4638069006
Fe 7.1648793129 10.0308310380 12.8967827632
Fe 5.7319034503 8.5978551755 14.3297586258
Fe 7.1648793129 10.0308310380 15.7627344883
Fe 5.7319034503 8.5978551755 17.1957103509
Fe 7.1648793129 10.0308310380 18.6286862135
Fe 5.7319034503 8.5978551755 20.0616620761
Fe 7.1648793129 10.0308310380 21.4946379386
Fe 5.7319034503 8.5978551755 22.9276138012
Fe 7.1648793129 10.0308310380 24.3605896638
Fe 5.7319034503 8.5978551755 25.7935655264
Fe 7.1648793129 10.0308310380 27.2265413889
Fe 5.7319034503 11.4638069006 0.0000000000
Fe 7.1648793129 12.8967827632 1.4329758626
Fe 5.7319034503 11.4638069006 2.8659517252
Fe 7.1648793129 12.8967827632 4.2989275877
Fe 5.7319034503 11.4638069006 5.7319034503
Fe 7.1648793129 12.8967827632 7.1648793129
Fe 5.7319034503 11.4638069006 8.5978551755
Fe 7.1648793129 12.8967827632 10.0308310380
Fe 5.7319034503 11.4638069006 11.4638069006
Fe 7.1648793129 12.8967827632 12.8967827632
Fe 5.7319034503 11.4638069006 14.3297586258
Fe 7.1648793129 12.8967827632 15.7627344883
Fe 5.7319034503 11.4638069006 17.1957103509
Fe 7.1648793129 12.8967827632 18.6286862135
Fe 5.7319034503 11.4638069006 20.0616620761
Fe 7.1648793129 12.8967827632 21.4946379386
Fe 5.7319034503 11.4638069006 22.9276138012
Fe 7.1648793129 12.8967827632 24.3605896638
Fe 5.7319034503 11.4638069006 25.7935655264
Fe 7.1648793129 12.8967827632 27.2265413889
Fe 5.7319034503 14.3297586258 0.0000000000
Fe 7.1648793129 15.7627344883 1.4329758626
Fe 5.7319034503 14.3297586258 2.8659517252
Fe 7.1648793129 15.7627344883 4.2989275877
Fe 5.7319034503 14.3297586258 5.7319034503
Fe 7.1648793129 15.7627344883 7.1648793129
Fe 5.7319034503 14.3297586258 8.5978551755
Fe 7.1648793129 15.7627344883 10.0308310380
Fe 5.7319034503 14.3297586258 11.4638069006
Fe 7.1648793129 15.7627344883 12.8967827632
Fe 5.7319034503 14.3297586258 14.3297586258
Fe 7.1648793129 15.7627344883 15.7627344883
Fe 5.7319034503 14.3297586258 17.1957103509
Fe 7.1648793129 15.7627344883 18.6286862135
Fe 5.7319034503 14.3297586258 20.0616620761
Fe 7.1648793129 15.7627344883 21.4946379386
Fe 5.7319034503 14.3297586258 22.9276138012
Fe 7.1648793129 15.7627344883 24.3605896638
Fe 5.7319034503 14.3297586258 25.7935655264
Fe 7.1648793129 15.7627344883 27.2265413889
Fe 5.7319034503 17.1957103509 0.0000000000
Fe 7.1648793129 18.6286862135 1.4329758626
Fe 5.7319034503 17.1957103509 2.8659517252
Fe 7.1648793129 18.6286862135 4.2989275877
Fe 5.7319034503 17.1957103509 5.7319034503
Fe 7.1648793129 18.6286862135 7.1648793129
Fe 5.7319034503 17.1957103509 8.5978551755
Fe 7.1648793129 18.6286862135 10.0308310380
Fe 5.7319034503 17.1957103509 11.4638069006
Fe 7.1648793129 18.6286862135 12.8967827632
Fe 5.7319034503 17.1957103509 14.3297586258
Fe 7.1648793129 18.6286862135 15.7627344883
Fe 5.7319034503 17.1957103509 17.1957103509
Fe 7.1648793129 18.6286862135 18.6286862135
Fe 5.7319034503 17.1957103509 20.0616620761
Fe 7.1648793129 18.6286862135 21.4946379386
Fe 5.7319034503 17.1957103509 22.9276138012
Fe 7.1648793129 18.6286862135 24.3605896638
Fe 5.7319034503 17.1957103509 25.7935655264
Fe 7.1648793129 18.6286862135 27.2265413889
Fe 5.7319034503 20.0616620761 0.0000000000
Fe 7.1648793129 21.4946379386 1.4329758626
Fe 5.7319034503 20.0616620761 2.8659517252
Fe 7.1648793129 21.4946379386 4.2989275877
Fe 5.7319034503 20.0616620761 5.7319034503
Fe 7.1648793129 21.4946379386 7.1648793129
Fe 5.7319034503 20.0616620761 8.5978551755
Fe 7.1648793129 21.4946379386 10.0308310380
Fe 5.7319034503 20.0616620761 11.4638069006
Fe 7.1648793129 21.4946379386 12.8967827632
Fe 5.7319034503 20.0616620761 14.3297586258
Fe 7.1648793129 21.4946379386 15.7627344883
Fe 5.7319034503 20.0616620761 17.1957103509
Fe 7.1648793129 21.4946379386 18.6286862135
Fe 5.7319034503 20.0616620761 20.0616620761
Fe 7.1648793129 21.4946379386 21.4946379386
Fe 5.7319034503 20.0616620761 22.9276138012
Fe 7.1648793129 21.4946379386 24.3605896638
Fe 5.7319034503 20.0616620761 25.7935655264
Fe 7.1648793129 21.4946379386 27.2265413889
Fe 5.7319034503 22.9276138012 0.0000000000
Fe 7.1648793129 24.3605896638 1.4329758626
Fe 5.7319034503 22.9276138012 2.8659517252
Fe 7.1648793129 24.3605896638 4.2989275877
Fe 5.7319034503 22.9276138012 5.7319034503
Fe 7.1648793129 24.3605896638 7.1648793129
Fe 5.7319034503 22.9276138012 8.5978551755
Fe 7.1648793129 24.3605896638 10.0308310380
Fe 5.7319034503 22.9276138012 11.4638069006
Fe 7.1648793129 24.3605896638 12.8967827632
Fe 5.7319034503 22.9276138012 14.3297586258
Fe 7.1648793129 24.3605896638 15.7627344883
Fe 5.7319034503 22.9276138012 17.1957103509
Fe 7.1648793129 24.3605896638 18.6286862135
Fe 5.7319034503 22.9276138012 20.0616620761
Fe 7.1648793129 24.3605896638 21.4946379386
Fe 5.7319034503 22.9276138012 22.9276138012
Fe 7.1648793129 24.3605896638 24.3605896638
Fe 5.7319034503 22.9276138012 25.7935655264
Fe 7.1648793129 24.3605896638 27.2265413889
Fe 5.7319034503 25.7935655264 0.0000000000
Fe 7.1648793129 27.2265413889 1.4329758626
Fe 5.7319034503 25.7935655264 2.8659517252
Fe 7.1648793129 27.2265413889 4.2989275877
Fe 5.7319034503 25.7935655264 5.7319034503
Fe 7.1648793129 27.2265413889 7.1648793129
Fe 5.7319034503 25.7935655264 8.5978551755
Fe 7.1648793129 27.2265413889 10.0308310380
Fe 5.7319034503 25.7935655264 11.4638069006
Fe 7.1648793129 27.2265413889 12.8967827632
Fe 5.7319034503 25.7935655264 14.3297586258
Fe 7.1648793129 27.2265413889 15.7627344883
Fe 5.7319034503 25.7935655264 17.1957103509
Fe 7.1648793129 27.2265413889 18.6286862135
Fe 5.7319034503 25.7935655264 20.0616620761
Fe 7.1648793129 27.2265413889 21.4946379386
Fe 5.7319034503 25.7935655264 22.9276138012
Fe 7.1648793129 27.2265413889 24.3605896638
Fe 5.7319034503 25.7935655264 25.7935655264
Fe 7.1648793129 27.2265413889 27.2265413889
Fe 8.5978551755 0.0000000000 0.0000000000
Fe 10.0308310380 1.4329758626 1.4329758626
Fe 8.5978551755 0.0000000000 2.8659517252
Fe 10.0308310380 1.4329758626 4.2989275877
Fe 8.5978551755 0.0000000000 5.7319034503
Fe 10.0308310380 1.4329758626 7.1648793129
Fe 8.5978551755 0.0000000000 8.5978551755
Fe 10.0308310380 1.4329758626 10.0308310380
Fe 8.5978551755 0.0000000000 11.4638069006
Fe 10.0308310380 1.4329758626 12.8967827632
Fe 8.5978551755 0.0000000000 14.3297586258
Fe 10.0308310380 1.4329758626 15.7627344883
Fe 8.5978551755 0.0000000000 17.1957103509
Fe 10.0308310380 1.4329758626 18.6286862135
Fe 8.5978551755 0.0000000000 20.0616620761
Fe 10.0308310380 1.4329758626 21.4946379386
Fe 8.5978551755 0.0000000000 22.9276138012
Fe 10.0308310380 1.4329758626 24.3605896638
Fe 8.5978551755 0.0000000000 25.7935655264
Fe 10.0308310380 1.4329758626 27.2265413889
Fe 8.5978551755 2.8659517252 0.0000000000
Fe 10.0308310380 4.2989275877 1.4329758626
Fe 8.5978551755 2.8659517252 2.8659517252
Fe 10.0308310380 4.2989275877 4.2989275877
Fe 8.5978551755 2.8659517252 5.7319034503
Fe 10.0308310380 4.2989275877 7.1648793129
Fe 8.5978551755 2.8659517252 8.5978551755
Fe 10.0308310380 4.2989275877 10.0308310380
Fe 8.5978551755 2.8659517252 11.4638069006
Fe 10.0308310380 4.2989275877 12.8967827632
Fe 8.5978551755 2.8659517252 14.3297586258
Fe 10.0308310380 4.2989275877 15.7627344883
Fe 8.5978551755 2.8659517252 17.1957103509
Fe 10.0308310380 4.2989275877 18.6286862135
Fe 8.5978551755 2.8659517252 20.0616620761
Fe 10.0308310380 4.2989275877 21.4946379386
Fe 8.5978551755 2.8659517252 22.9276138012
Fe 10.0308310380 4.2989275877 24.3605896638
Fe 8.5978551755 2.8659517252 25.7935655264
Fe 10.0308310380 4.2989275877 27.2265413889
Fe 8.5978551755 5.7319034503 0.0000000000
Fe 10.0308310380 7.1648793129 1.4329758626
Fe 8.5978551755 5.7319034503 2.8659517252
Fe 10.0308310380 7.1648793129 4.2989275877
Fe 8.5978551755 5.7319034503 5.7319034503
Fe 10.0308310380 7.1648793129 7.1648793129
Fe 8.5978551755 5.7319034503 8.5978551755
Fe 10.0308310380 7.1648793129 10.0308310380
Fe 8.5978551755 5.7319034503 11.4638069006
Fe 10.0308310380 7.1648793129 12.8967827632
Fe 8.5978551755 5.7319034503 14.3297586258
Fe 10.0308310380 7.1648793129 15.7627344883
Fe 8.5978551755 5.7319034503 17.1957103509
Fe 10.0308310380 7.1648793129 18.6286862135
Fe 8.5978551755 5.7319034503 20.0616620761
Fe 10.0308310380 7.1648793129 21.4946379386
Fe 8.5978551755 5.7319034503 22.9276138012
Fe 10.0308310380 7.1648793129 24.3605896638
Fe 8.5978551755 5.7319034503 25.7935655264
Fe 10.0308310380 7.1648793129 27.2265413889
Fe 8.5978551755 8.5978551755 0.0000000000
Fe 10.0308310380 10.0308310380 1.4329758626
Fe 8.5978551755 8.5978551755 2.8659517252
Fe 10.0308310380 10.0308310380 4.2989275877
Fe 8.5978551755 8.5978551755 5.7319034503
Fe 10.0308310380 10.0308310380 7.1648793129
Fe 8.5978551755 8.5978551755 8.5978551755
Fe 10.0308310380 10.0308310380 10.0308310380
Fe 8.5978551755 8.5978551755 11.4638069006
Fe 10.0308310380 10.0308310380 12.8967827632
Fe 8.5978551755 8.5978551755 14.3297586258
Fe 10.0308310380 10.0308310380 15.7627344883
Fe 8.5978551755 8.5978551755 17.1957103509
Fe 10.0308310380 10.0308310380 18.6286862135
Fe 8.5978551755 8.5978551755 20.0616620761
Fe 10.0308310380 10.0308310380 21.4946379386
Fe 8.5978551755 8.5978551755 22.9276138012
Fe 10.0308310380 10.0308310380 24.3605896638
Fe 8.5978551755 8.5978551755 25.7935655264
Fe 10.0308310380 10.0308310380 27.2265413889
Fe 8.5978551755 11.4638069006 0.0000000000
Fe 10.0308310380 12.8967827632 1.4329758626
Fe 8.5978551755 11.4638069006 2.8659517252
Fe 10.0308310380 12.8967827632 4.2989275877
Fe 8.5978551755 11.4638069006 5.7319034503
Fe 10.0308310380 12.8967827632 7.1648793129
Fe 8.5978551755 11.4638069006 8.5978551755
Fe 10.0308310380 12.8967827632 10.0308310380
Fe 8.5978551755 11.4638069006 11.4638069006
Fe 10.0308310380 12.8967827632 12.8967827632
Fe 8.5978551755 11.4638069006 14.3297586258
Fe 10.0308310380 12.8967827632 15.7627344883
Fe 8.5978551755 11.4638069006 17.1957103509
Fe 10.0308310380 12.8967827632 18.6286862135
Fe 8.5978551755 11.4638069006 20.0616620761
Fe 10.0308310380 12.8967827632 21.4946379386
Fe 8.5978551755 11.4638069006 22.9276138012
Fe 10.0308310380 12.8967827632 24.3605896638
Fe 8.5978551755 11.4638069006 25.7935655264
Fe 10.0308310380 12.8967827632 27.2265413889
Fe 8.5978551755 14.3297586258 0.0000000000
Fe 10.0308310380 15.7627344883 1.4329758626
Fe 8.5978551755 14.3297586258 2.8659517252
Fe 10.0308310380 15.7627344883 4.2989275877
Fe 8.5978551755 14.3297586258 5.7319034503
Fe 10.0308310380 15.7627344883 7.1648793129
Fe 8.5978551755 14.3297586258 8.5978551755
Fe 10.0308310380 15.7627344883 10.0308310380
Fe 8.5978551755 14.3297586258 11.4638069006
Fe 10.0308310380 15.7627344883 12.8967827632
Fe 8.5978551755 14.3297586258 14.3297586258
Fe 10.0308310380 15.7627344883 15.7627344883
Fe 8.5978551755 14.3297586258 17.1957103509
Fe 10.0308310380 15.7627344883 18.6286862135
Fe 8.5978551755 14.3297586258 20.0616620761
Fe 10.0308310380 15.7627344883 21.4946379386
Fe 8.5978551755 14.3297586258 22.9276138012
Fe 10.0308310380 15.7627344883 24.3605896638
Fe 8.5978551755 14.3297586258 25.7935655264
Fe 10.0308310380 15.7627344883 27.2265413889
Fe 8.5978551755 17.1957103509 0.0000000000
Fe 10.0308310380 18.6286862135 1.4329758626
Fe 8.5978551755 17.1957103509 2.8659517252
Fe 10.0308310380 18.6286862135 4.2989275877
Fe 8.5978551755 17.1957103509 5.7319034503
Fe 10.0308310380 18.6286862135 7.1648793129
Fe 8.5978551755 17.1957103509 8.5978551755
Fe 10.0308310380 18.6286862135 10.0308310380
Fe 8.5978551755 17.1957103509 11.4638069006
Fe 10.0308310380 18.6286862135 12.8967827632
Fe 8.5978551755 17.1957103509 14.3297586258
Fe 10.0308310380 18.6286862135 15.7627344883
Fe 8.5978551755 17.1957103509 17.1957103509
Fe 10.0308310380 18.6286862135 18.6286862135
Fe 8.5978551755 17.1957103509 20.0616620761
Fe 10.0308310380 18.6286862135 21.4946379386
Fe 8.5978551755 17.1957103509 22.9276138012
Fe 10.0308310380 18.6286862135 24.3605896638
Fe 8.5978551755 17.1957103509 25.7935655264
Fe 10.0308310380 18.6286862135 27.2265413889
Fe 8.5978551755 20.0616620761 0.0000000000
Fe 10.0308310380 21.4946379386 1.4329758626
Fe 8.5978551755 20.0616620761 2.8659517252
Fe 10.0308310380 21.4946379386 4.2989275877
Fe 8.5978551755 20.0616620761 5.7319034503
Fe 10.0308310380 21.4946379386 7.1648793129
Fe 8.5978551755 20.0616620761 8.5978551755
Fe 10.0308310380 21.4946379386 10.0308310380
Fe 8.5978551755 20.0616620761 11.4638069006
Fe 10.0308310380 21.4946379386 12.8967827632
Fe 8.5978551755 20.0616620761 14.3297586258
Fe 10.0308310380 21.4946379386 15.7627344883
Fe 8.5978551755 20.0616620761 17.1957103509
Fe 10.0308310380 21.4946379386 18.6286862135
Fe 8.5978551755 20.0616620761 20.0616620761
Fe 10.0308310380 21.4946379386 21.4946379386
Fe 8.5978551755 20.0616620761 22.9276138012
Fe 10.0308310380 21.4946379386 24.3605896638
Fe 8.5978551755 20.0616620761 25.7935655264
Fe 10.0308310380 21.4946379386 27.2265413889
Fe 8.5978551755 22.9276138012 0.0000000000
Fe 10.0308310380 24.3605896638 1.4329758626
Fe 8.5978551755 22.9276138012 2.8659517252
Fe 10.0308310380 24.3605896638 4.2989275877
Fe 8.5978551755 22.9276138012 5.7319034503
Fe 10.0308310380 24.3605896638 7.1648793129
Fe 8.5978551755 22.9276138012 8.5978551755
Fe 10.0308310380 24.3605896638 10.0308310380
Fe 8.5978551755 22.9276138012 11.4638069006
Fe 10.0308310380 24.3605896638 12.8967827632
Fe 8.5978551755 22.9276138012 14.3297586258
Fe 10.0308310380 24.3605896638 15.7627344883
Fe 8.5978551755 22.9276138012 17.1957103509
Fe 10.0308310380 24.3605896638 18.6286862135
Fe 8.5978551755 22.9276138012 20.0616620761
Fe 10.0308310380 24.3605896638 21.4946379386
Fe 8.5978551755 22.9276138012 22.9276138012
Fe 10.0308310380 24.3605896638 24.3605896638
Fe 8.5978551755 22.9276138012 25.7935655264
Fe 10.0308310380 24.3605896638 27.2265413889
Fe 8.5978551755 25.7935655264 0.0000000000
Fe 10.0308310380 27.2265413889 1.4329758626
Fe 8.5978551755 25.7935655264 2.8659517252
Fe 10.0308310380 27.2265413889 4.2989275877
Fe 8.5978551755 25.7935655264 5.7319034503
Fe 10.0308310380 27.2265413889 7.1648793129
Fe 8.5978551755 25.7935655264 8.5978551755
Fe 10.0308310380 27.2265413889 10.0308310380
Fe 8.5978551755 25.7935655264 11.4638069006
Fe 10.0308310380 27.2265413889 12.8967827632
Fe 8.5978551755 25.7935655264 14.3297586258
Fe 10.0308310380 27.2265413889 15.7627344883
Fe 8.5978551755 25.7935655264 17.1957103509
Fe 10.0308310380 27.2265413889 18.6286862135
Fe 8.5978551755 25.7935655264 20.0616620761
Fe 10.0308310380 27.2265413889 21.4946379386
Fe 8.5978551755 25.7935655264 22.9276138012
Fe 10.0308310380 27.2265413889 24.3605896638
Fe 8.5978551755 25.7935655264 25.7935655264
Fe 10.0308310380 27.2265413889 27.2265413889
Fe 11.4638069006 0.0000000000 0.0000000000
Fe 12.8967827632 1.4329758626 1.4329758626
Fe 11.4638069006 0.0000000000 2.8659517252
Fe 12.8967827632 1.4329758626 4.2989275877
Fe 11.4638069006 0.0000000000 5.7319034503
Fe 12.8967827632 1.4329758626 7.1648793129
Fe 11.4638069006 0.0000000000 8.5978551755
Fe 12.8967827632 1.4329758626 10.0308310380
Fe 11.4638069006 0.0000000000 11.4638069006
Fe 12.8967827632 1.4329758626 12.8967827632
Fe 11.4638069006 0.0000000000 14.3297586258
Fe 12.8967827632 1.4329758626 15.7627344883
Fe 11.4638069006 0.0000000000 17.1957103509
Fe 12.8967827632 1.4329758626 18.6286862135
Fe 11.4638069006 0.0000000000 20.0616620761
Fe 12.8967827632 1.4329758626 21.4946379386
Fe 11.4638069006 0.0000000000 22.9276138012
Fe 12.8967827632 1.4329758626 24.3605896638
Fe 11.4638069006 0.0000000000 25.7935655264
Fe 12.8967827632 1.4329758626 27.2265413889
Fe 11.4638069006 2.8659517252 0.0000000000
Fe 12.8967827632 4.2989275877 1.4329758626
Fe 11.4638069006 2.8659517252 2.8659517252
Fe 12.8967827632 4.2989275877 4.2989275877
Fe 11.4638069006 2.8659517252 5.7319034503
Fe 12.8967827632 4.2989275877 7.1648793129
Fe 11.4638069006 2.8659517252 8.5978551755
Fe 12.8967827632 4.2989275877 10.0308310380
Fe 11.4638069006 2.8659517252 11.4638069006
Fe 12.8967827632 4.2989275877 12.8967827632
Fe 11.4638069006 2.8659517252 14.3297586258
Fe 12.8967827632 4.2989275877 15.7627344883
Fe 11.4638069006 2.8659517252 17.1957103509
Fe 12.8967827632 4.2989275877 18.6286862135
Fe 11.4638069006 2.8659517252 20.0616620761
Fe 12.8967827632 4.2989275877 21.4946379386
Fe 11.4638069006 2.8659517252 22.9276138012
Fe 12.8967827632 4.2989275877 24.3605896638
Fe 11.4638069006 2.8659517252 25.7935655264
Fe 12.8967827632 4.2989275877 27.2265413889
Fe 11.4638069006 5.7319034503 0.0000000000
Fe 12.8967827632 7.1648793129 1.4329758626
Fe 11.4638069006 5.7319034503 2.8659517252
Fe 12.8967827632 7.1648793129 4.2989275877
Fe 11.4638069006 5.7319034503 5.7319034503
Fe 12.8967827632 7.1648793129 7.1648793129
Fe 11.4638069006 5.7319034503 8.5978551755
Fe 12.8967827632 7.1648793129 10.0308310380
Fe 11.4638069006 5.7319034503 11.4638069006
Fe 12.8967827632 7.1648793129 12.8967827632
Fe 11.4638069006 5.7319034503 14.3297586258
Fe 12.8967827632 7.1648793129 15.7627344883
Fe 11.4638069006 5.7319034503 17.1957103509
Fe 12.8967827632 7.1648793129 18.6286862135
Fe 11.4638069006 5.7319034503 20.0616620761
Fe 12.8967827632 7.1648793129 21.4946379386
Fe 11.4638069006 5.7319034503 22.9276138012
Fe 12.8967827632 7.1648793129 24.3605896638
Fe 11.4638069006 5.7319034503 25.7935655264
Fe 12.8967827632 7.1648793129 27.2265413889
Fe 11.4638069006 8.5978551755 0.0000000000
Fe 12.8967827632 10.0308310380 1.4329758626
Fe 11.4638069006 8.5978551755 2.8659517252
Fe 12.8967827632 10.0308310380 4.2989275877
Fe 11.4638069006 8.5978551755 5.7319034503
Fe 12.8967827632 10.0308310380 7.1648793129
Fe 11.4638069006 8.5978551755 8.5978551755
Fe 12.8967827632 10.0308310380 10.0308310380
Fe 11.4638069006 8.5978551755 11.4638069006
Fe 12.8967827632 10.0308310380 12.8967827632
Fe 11.4638069006 8.5978551755 14.3297586258
Fe 12.8967827632 10.0308310380 15.7627344883
Fe 11.4638069006 8.5978551755 17.1957103509
Fe 12.8967827632 10.0308310380 18.6286862135
Fe 11.4638069006 8.5978551755 20.0616620761
Fe 12.8967827632 10.0308310380 21.4946379386
Fe 11.4638069006 8.5978551755 22.9276138012
Fe 12.8967827632 10.0308310380 24.3605896638
Fe 11.4638069006 8.5978551755 25.7935655264
Fe 12.8967827632 10.0308310380 27.2265413889
Fe 11.4638069006 11.4638069006 0.0000000000
Fe 12.8967827632 12.8967827632 1.4329758626
Fe 11.4638069006 11.4638069006 2.8659517252
Fe 12.8967827632 12.8967827632 4.2989275877
Fe 11.4638069006 11.4638069006 5.7319034503
Fe 12.8967827632 12.8967827632 7.1648793129
Fe 11.4638069006 11.4638069006 8.5978551755
Fe 12.8967827632 12.8967827632 10.0308310380
Fe 11.4638069006 11.4638069006 11.4638069006
Fe 12.8967827632 12.8967827632 12.8967827632
Fe 11.4638069006 11.4638069006 14.3297586258
Fe 12.8967827632 12.8967827632 15.7627344883
Fe 11.4638069006 11.4638069006 17.1957103509
Fe 12.8967827632 12.8967827632 18.6286862135
Fe 11.4638069006 11.4638069006 20.0616620761
Fe 12.8967827632 12.8967827632 21.4946379386
Fe 11.4638069006 11.4638069006 22.9276138012
Fe 12.8967827632 12.8967827632 24.3605896638
Fe 11.4638069006 11.4638069006 25.7935655264
Fe 12.8967827632 12.8967827632 27.2265413889
Fe 11.4638069006 14.3297586258 0.0000000000
Fe 12.8967827632 15.7627344883 1.4329758626
Fe 11.4638069006 14.3297586258 2.8659517252
Fe 12.8967827632 15.7627344883 4.2989275877
Fe 11.4638069006 14.3297586258 5.7319034503
Fe 12.8967827632 15.7627344883 7.1648793129
Fe 11.4638069006 14.3297586258 8.5978551755
Fe 12.8967827632 15.7627344883 10.0308310380
Fe 11.4638069006 14.3297586258 11.4638069006
Fe 12.8967827632 15.7627344883 12.8967827632
Fe 11.4638069006 14.3297586258 14.3297586258
Fe 12.8967827632 15.7627344883 15.7627344883
Fe 11.4638069006 14.3297586258 17.1957103509
Fe 12.8967827632 15.7627344883 18.6286862135
Fe 11.4638069006 14.3297586258 20.0616620761
Fe 12.8967827632 15.7627344883 21.4946379386
Fe 11.4638069006 14.3297586258 22.9276138012
Fe 12.8967827632 15.7627344883 24.3605896638
Fe 11.4638069006 14.3297586258 25.7935655264
Fe 12.8967827632 15.7627344883 27.2265413889
Fe 11.4638069006 17.1957103509 0.0000000000
Fe 12.8967827632 18.6286862135 1.4329758626
Fe 11.4638069006 17.1957103509 2.8659517252
Fe 12.8967827632 18.6286862135 4.2989275877
Fe 11.4638069006 17.1957103509 5.7319034503
Fe 12.8967827632 18.6286862135 7.1648793129
Fe 11.4638069006 17.1957103509 8.5978551755
Fe 12.8967827632 18.6286862135 10.0308310380
Fe 11.4638069006 17.1957103509 11.4638069006
Fe 12.8967827632 18.6286862135 12.8967827632
Fe 11.4638069006 17.1957103509 14.3297586258
Fe 12.8967827632 18.6286862135 15.7627344883
Fe 11.4638069006 17.1957103509 17.1957103509
Fe 12.8967827632 18.6286862135 18.6286862135
Fe 11.4638069006 17.1957103509 20.0616620761
Fe 12.8967827632 18.6286862135 21.4946379386
Fe 11.4638069006 17.1957103509 22.9276138012
Fe 12.8967827632 18.6286862135 24.3605896638
Fe 11.4638069006 17.1957103509 25.7935655264
Fe 12.8967827632 18.6286862135 27.2265413889
Fe 11.4638069006 20.0616620761 0.0000000000
Fe 12.8967827632 21.4946379386 1.4329758626
Fe 11.4638069006 20.0616620761 2.8659517252
Fe 12.8967827632 21.4946379386 4.2989275877
Fe 11.4638069006 20.0616620761 5.7319034503
Fe 12.8967827632 21.4946379386 7.1648793129
Fe 11.4638069006 20.0616620761 8.5978551755
Fe 12.8967827632 21.4946379386 10.0308310380
Fe 11.4638069006 20.0616620761 11.4638069006
Fe 12.8967827632 21.4946379386 12.8967827632
Fe 11.4638069006 20.0616620761 14.3297586258
Fe 12.8967827632 21.4946379386 15.7627344883
Fe 11.4638069006 20.0616620761 17.1957103509
Fe 12.8967827632 21.4946379386 18.6286862135
Fe 11.4638069006 20.0616620761 20.0616620761
Fe 12.8967827632 21.4946379386 21.4946379386
Fe 11.4638069006 20.0616620761 22.9276138012
Fe 12.8967827632 21.4946379386 24.3605896638
Fe 11.4638069006 20.0616620761 25.7935655264
Fe 12.8967827632 21.4946379386 27.2265413889
Fe 11.4638069006 22.9276138012 0.0000000000
Fe 12.8967827632 24.3605896638 1.4329758626
Fe 11.4638069006 22.9276138012 2.8659517252
Fe 12.8967827632 24.3605896638 4.2989275877
Fe 11.4638069006 22.9276138012 5.7319034503
Fe 12.8967827632 24.3605896638 7.1648793129
Fe 11.4638069006 22.9276138012 8.5978551755
Fe 12.8967827632 24.3605896638 10.0308310380
Fe 11.4638069006 22.9276138012 11.4638069006
Fe 12.8967827632 24.3605896638 12.8967827632
Fe 11.4638069006 22.9276138012 14.3297586258
Fe 12.8967827632 24.3605896638 15.7627344883
Fe 11.4638069006 22.9276138012 17.1957103509
Fe 12.8967827632 24.3605896638 18.6286862135
Fe 11.4638069006 22.9276138012 20.0616620761
Fe 12.8967827632 24.3605896638 21.4946379386
Fe 11.4638069006 22.9276138012 22.9276138012
Fe 12.8967827632 24.3605896638 24.3605896638
Fe 11.4638069006 22.9276138012 25.7935655264
Fe 12.8967827632 24.3605896638 27.2265413889
Fe 11.4638069006 25.7935655264 0.0000000000
Fe 12.8967827632 27.2265413889 1.4329758626
Fe 11.4638069006 25.7935655264 2.8659517252
Fe 12.8967827632 27.2265413889 4.2989275877
Fe 11.4638069006 25.7935655264 5.7319034503
Fe 12.8967827632 27.2265413889 7.1648793129
Fe 11.4638069006 25.7935655264 8.5978551755
Fe 12.8967827632 27.2265413889 10.0308310380
Fe 11.4638069006 25.7935655264 11.4638069006
Fe 12.8967827632 27.2265413889 12.8967827632
Fe 11.4638069006 25.7935655264 14.3297586258
Fe 12.8967827632 27.2265413889 15.7627344883
Fe 11.4638069006 25.7935655264 17.1957103509
Fe 12.8967827632 27.2265413889 18.6286862135
Fe 11.4638069006 25.7935655264 20.0616620761
Fe 12.8967827632 27.2265413889 21.4946379386
Fe 11.4638069006 25.7935655264 22.9276138012
Fe 12.8967827632 27.2265413889 24.3605896638
Fe 11.4638069006 25.7935655264 25.7935655264
Fe 12.8967827632 27.2265413889 27.2265413889
Fe 14.3297586258 0.0000000000 0.0000000000
Fe 15.7627344883 1.4329758626 1.4329758626
Fe 14.3297586258 0.0000000000 2.8659517252
Fe 15.7627344883 1.4329758626 4.2989275877
Fe 14.3297586258 0.0000000000 5.7319034503
Fe 15.7627344883 1.4329758626 7.1648793129
Fe 14.3297586258 0.0000000000 8.5978551755
Fe 15.7627344883 1.4329758626 10.0308310380
Fe 14.3297586258 0.0000000000 11.4638069006
Fe 15.7627344883 1.4329758626 12.8967827632
Fe 14.3297586258 0.0000000000 14.3297586258
Fe 15.7627344883 1.4329758626 15.7627344883
Fe 14.3297586258 0.0000000000 17.1957103509
Fe 15.7627344883 1.4329758626 18.6286862135
Fe 14.3297586258 0.0000000000 20.0616620761
Fe 15.7627344883 1.4329758626 21.4946379386
Fe 14.3297586258 0.0000000000 22.9276138012
Fe 15.7627344883 1.4329758626 24.3605896638
Fe 14.3297586258 0.0000000000 25.7935655264
Fe 15.7627344883 1.4329758626 27.2265413889
Fe 14.3297586258 2.8659517252 0.0000000000
Fe 15.7627344883 4.2989275877 1.4329758626
Fe 14.3297586258 2.8659517252 2.8659517252
Fe 15.7627344883 4.2989275877 4.2989275877
Fe 14.3297586258 2.8659517252 5.7319034503
Fe 15.7627344883 4.2989275877 7.1648793129
Fe 14.3297586258 2.8659517252 8.5978551755
Fe 15.7627344883 4.2989275877 10.0308310380
Fe 14.3297586258 2.8659517252 11.4638069006
Fe 15.7627344883 4.2989275877 12.8967827632
Fe 14.3297586258 2.8659517252 14.3297586258
Fe 15.7627344883 4.2989275877 15.7627344883
Fe 14.3297586258 2.8659517252 17.1957103509
Fe 15.7627344883 4.2989275877 18.6286862135
Fe 14.3297586258 2.8659517252 20.0616620761
Fe 15.7627344883 4.2989275877 21.4946379386
Fe 14.3297586258 2.8659517252 22.9276138012
Fe 15.7627344883 4.2989275877 24.3605896638
Fe 14.3297586258 2.8659517252 25.7935655264
Fe 15.7627344883 4.2989275877 27.2265413889
Fe 14.3297586258 5.7319034503 0.0000000000
Fe 15.7627344883 7.1648793129 1.4329758626
Fe 14.3297586258 5.7319034503 2.8659517252
Fe 15.7627344883 7.1648793129 4.2989275877
Fe 14.3297586258 5.7319034503 5.7319034503
Fe 15.7627344883 7.1648793129 7.1648793129
Fe 14.3297586258 5.7319034503 8.5978551755
Fe 15.7627344883 7.1648793129 10.0308310380
Fe 14.3297586258 5.7319034503 11.4638069006
Fe 15.7627344883 7.1648793129 12.8967827632
Fe 14.3297586258 5.7319034503 14.3297586258
Fe 15.7627344883 7.1648793129 15.7627344883
Fe 14.3297586258 5.7319034503 17.1957103509
Fe 15.7627344883 7.1648793129 18.6286862135
Fe 14.3297586258 5.7319034503 20.0616620761
Fe 15.7627344883 7.1648793129 21.4946379386
Fe 14.3297586258 5.7319034503 22.9276138012
Fe 15.7627344883 7.1648793129 24.3605896638
Fe 14.3297586258 5.7319034503 25.7935655264
Fe 15.7627344883 7.1648793129 27.2265413889
Fe 14.3297586258 8.5978551755 0.0000000000
Fe 15.7627344883 10.0308310380 1.4329758626
Fe 14.3297586258 8.5978551755 2.8659517252
Fe 15.7627344883 10.0308310380 4.2989275877
Fe 14.3297586258 8.5978551755 5.7319034503
Fe 15.7627344883 10.0308310380 7.1648793129
Fe 14.3297586258 8.5978551755 8.5978551755
Fe 15.7627344883 10.0308310380 10.0308310380
Fe 14.3297586258 8.5978551755 11.4638069006
Fe 15.7627344883 10.0308310380 12.8967827632
Fe 14.3297586258 8.5978551755 14.3297586258
Fe 15.7627344883 10.0308310380 15.7627344883
Fe 14.3297586258 8.5978551755 17.1957103509
Fe 15.7627344883 10.0308310380 18.6286862135
Fe 14.3297586258 8.5978551755 20.0616620761
Fe 15.7627344883 10.0308310380 21.4946379386
Fe 14.3297586258 8.5978551755 22.9276138012
Fe 15.7627344883 10.0308310380 24.3605896638
Fe 14.3297586258 8.5978551755 25.7935655264
Fe 15.7627344883 10.0308310380 27.2265413889
Fe 14.3297586258 11.4638069006 0.0000000000
Fe 15.7627344883 12.8967827632 1.4329758626
Fe 14.3297586258 11.4638069006 2.8659517252
Fe 15.7627344883 12.8967827632 4.2989275877
Fe 14.3297586258 11.4638069006 5.7319034503
Fe 15.7627344883 12.8967827632 7.1648793129
Fe 14.3297586258 11.4638069006 8.5978551755
Fe 15.7627344883 12.8967827632 10.0308310380
Fe 14.3297586258 11.4638069006 11.4638069006
Fe 15.7627344883 12.8967827632 12.8967827632
Fe 14.3297586258 11.4638069006 14.3297586258
Fe 15.7627344883 12.8967827632 15.7627344883
Fe 14.3297586258 11.4638069006 17.1957103509
Fe 15.7627344883 12.8967827632 18.6286862135
Fe 14.3297586258 11.4638069006 20.0616620761
Fe 15.7627344883 12.8967827632 21.4946379386
Fe 14.3297586258 11.4638069006 22.9276138012
Fe 15.7627344883 12.8967827632 24.3605896638
Fe 14.3297586258 11.4638069006 25.7935655264
Fe 15.7627344883 12.8967827632 27.2265413889
Fe 14.3297586258 14.3297586258 0.0000000000
Fe 15.7627344883 15.7627344883 1.4329758626
Fe 14.3297586258 14.3297586258 2.8659517252
Fe 15.7627344883 15.7627344883 4.2989275877
Fe 14.3297586258 14.3297586258 5.7319034503
Fe 15.7627344883 15.7627344883 7.1648793129
Fe 14.3297586258 14.3297586258 8.5978551755
Fe 15.7627344883 15.7627344883 10.0308310380
Fe 14.3297586258 14.3297586258 11.4638069006
Fe 15.7627344883 15.7627344883 12.8967827632
Fe 14.3297586258 14.3297586258 14.3297586258
Fe 15.7627344883 15.7627344883 15.7627344883
Fe 14.3297586258 14.3297586258 17.1957103509
Fe 15.7627344883 15.7627344883 18.6286862135
Fe 14.3297586258 14.3297586258 20.0616620761
Fe 15.7627344883 15.7627344883 21.4946379386
Fe 14.3297586258 14.3297586258 22.9276138012
Fe 15.7627344883 15.7627344883 24.3605896638
Fe 14.3297586258 14.3297586258 25.7935655264
Fe 15.7627344883 15.7627344883 27.2265413889
Fe 14.3297586258 17.1957103509 0.0000000000
Fe 15.7627344883 18.6286862135 1.4329758626
Fe 14.3297586258 17.1957103509 2.8659517252
Fe 15.7627344883 18.6286862135 4.2989275877
Fe 14.3297586258 17.1957103509 5.7319034503
Fe 15.7627344883 18.6286862135 7.1648793129
Fe 14.3297586258 17.1957103509 8.5978551755
Fe 15.7627344883 18.6286862135 10.0308310380
Fe 14.3297586258 17.1957103509 11.4638069006
Fe 15.7627344883 18.6286862135 12.8967827632
Fe 14.3297586258 17.1957103509 14.3297586258
Fe 15.7627344883 18.6286862135 15.7627344883
Fe 14.3297586258 17.1957103509 17.1957103509
Fe 15.7627344883 18.6286862135 18.6286862135
Fe 14.3297586258 17.1957103509 20.0616620761
Fe 15.7627344883 18.6286862135 21.4946379386
Fe 14.3297586258 17.1957103509 22.9276138012
Fe 15.7627344883 18.6286862135 24.3605896638
Fe 14.3297586258 17.1957103509 25.7935655264
Fe 15.7627344883 18.6286862135 27.2265413889
Fe 14.3297586258 20.0616620761 0.0000000000
Fe 15.7627344883 21.4946379386 1.4329758626
Fe 14.3297586258 20.0616620761 2.8659517252
Fe 15.7627344883 21.4946379386 4.2989275877
Fe 14.3297586258 20.0616620761 5.7319034503
Fe 15.7627344883 21.4946379386 7.1648793129
Fe 14.3297586258 20.0616620761 8.5978551755
Fe 15.7627344883 21.4946379386 10.0308310380
Fe 14.3297586258 20.0616620761 11.4638069006
Fe 15.7627344883 21.4946379386 12.8967827632
Fe 14.3297586258 20.0616620761 14.3297586258
Fe 15.7627344883 21.4946379386 15.7627344883
Fe 14.3297586258 20.0616620761 17.1957103509
Fe 15.7627344883 21.4946379386 18.6286862135
Fe 14.3297586258 20.0616620761 20.0616620761
Fe 15.7627344883 21.4946379386 21.4946379386
Fe 14.3297586258 20.0616620761 22.9276138012
Fe 15.7627344883 21.4946379386 24.3605896638
Fe 14.3297586258 20.0616620761 25.7935655264
Fe 15.7627344883 21.4946379386 27.2265413889
Fe 14.3297586258 22.9276138012 0.0000000000
Fe 15.7627344883 24.3605896638 1.4329758626
Fe 14.3297586258 22.9276138012 2.8659517252
Fe 15.7627344883 24.3605896638 4.2989275877
Fe 14.3297586258 22.9276138012 5.7319034503
Fe 15.7627344883 24.3605896638 7.1648793129
Fe 14.3297586258 22.9276138012 8.5978551755
Fe 15.7627344883 24.3605896638 10.0308310380
Fe 14.3297586258 22.9276138012 11.4638069006
Fe 15.7627344883 24.3605896638 12.8967827632
Fe 14.3297586258 22.9276138012 14.3297586258
Fe 15.7627344883 24.3605896638 15.7627344883
Fe 14.3297586258 22.9276138012 17.1957103509
Fe 15.7627344883 24.3605896638 18.6286862135
Fe 14.3297586258 22.9276138012 20.0616620761
Fe 15.7627344883 24.3605896638 21.4946379386
Fe 14.3297586258 22.9276138012 22.9276138012
Fe 15.7627344883 24.3605896638 24.3605896638
Fe 14.3297586258 22.9276138012 25.7935655264
Fe 15.7627344883 24.3605896638 27.2265413889
Fe 14.3297586258 25.7935655264 0.0000000000
Fe 15.7627344883 27.2265413889 1.4329758626
Fe 14.3297586258 25.7935655264 2.8659517252
Fe 15.7627344883 27.2265413889 4.2989275877
Fe 14.3297586258 25.7935655264 5.7319034503
Fe 15.7627344883 27.2265413889 7.1648793129
Fe 14.3297586258 25.7935655264 8.5978551755
Fe 15.7627344883 27.2265413889 10.0308310380
Fe 14.3297586258 25.7935655264 11.4638069006
Fe 15.7627344883 27.2265413889 12.8967827632
Fe 14.3297586258 25.7935655264 14.3297586258
Fe 15.7627344883 27.2265413889 15.7627344883
Fe 14.3297586258 25.7935655264 17.1957103509
Fe 15.7627344883 27.2265413889 18.6286862135
Fe 14.3297586258 25.7935655264 20.0616620761
Fe 15.7627344883 27.2265413889 21.4946379386
Fe 14.3297586258 25.7935655264 22.9276138012
Fe 15.7627344883 27.2265413889 24.3605896638
Fe 14.3297586258 25.7935655264 25.7935655264
Fe 15.7627344883 27.2265413889 27.2265413889
Fe 17.1957103509 0.0000000000 0.0000000000
Fe 18.6286862135 1.4329758626 1.4329758626
Fe 17.1957103509 0.0000000000 2.8659517252
Fe 18.6286862135 1.4329758626 4.2989275877
Fe 17.1957103509 0.0000000000 5.7319034503
Fe 18.6286862135 1.4329758626 7.1648793129
Fe 17.1957103509 0.0000000000 8.5978551755
Fe 18.6286862135 1.4329758626 10.0308310380
Fe 17.1957103509 0.0000000000 11.4638069006
Fe 18.6286862135 1.4329758626 12.8967827632
Fe 17.1957103509 0.0000000000 14.3297586258
Fe 18.6286862135 1.4329758626 15.7627344883
Fe 17.1957103509 0.0000000000 17.1957103509
Fe 18.6286862135 1.4329758626 18.6286862135
Fe 17.1957103509 0.0000000000 20.0616620761
Fe 18.6286862135 1.4329758626 21.4946379386
Fe 17.1957103509 0.0000000000 22.9276138012
Fe 18.6286862135 1.4329758626 24.3605896638
Fe 17.1957103509 0.0000000000 25.7935655264
Fe 18.6286862135 1.4329758626 27.2265413889
Fe 17.1957103509 2.8659517252 0.0000000000
Fe 18.6286862135 4.2989275877 1.4329758626
Fe 17.1957103509 2.8659517252 2.8659517252
Fe 18.6286862135 4.2989275877 4.2989275877
Fe 17.1957103509 2.8659517252 5.7319034503
Fe 18.6286862135 4.2989275877 7.1648793129
Fe 17.1957103509 2.8659517252 8.5978551755
Fe 18.6286862135 4.2989275877 10.0308310380
Fe 17.1957103509 2.8659517252 11.4638069006
Fe 18.6286862135 4.2989275877 12.8967827632
Fe 17.1957103509 2.8659517252 14.3297586258
Fe 18.6286862135 4.2989275877 15.7627344883
Fe 17.1957103509 2.8659517252 17.1957103509
Fe 18.6286862135 4.2989275877 18.6286862135
Fe 17.1957103509 2.8659517252 20.0616620761
Fe 18.6286862135 4.2989275877 21.4946379386
Fe 17.1957103509 2.8659517252 22.9276138012
Fe 18.6286862135 4.2989275877 24.3605896638
Fe 17.1957103509 2.8659517252 25.7935655264
Fe 18.6286862135 4.2989275877 27.2265413889
Fe 17.1957103509 5.7319034503 0.0000000000
Fe 18.6286862135 7.1648793129 1.4329758626
Fe 17.1957103509 5.7319034503 2.8659517252
Fe 18.6286862135 7.1648793129 4.2989275877
Fe 17.1957103509 5.7319034503 5.7319034503
Fe 18.6286862135 7.1648793129 7.1648793129
Fe 17.1957103509 5.7319034503 8.5978551755
Fe 18.6286862135 7.1648793129 10.0308310380
Fe 17.1957103509 5.7319034503 11.4638069006
Fe 18.6286862135 7.1648793129 12.8967827632
Fe 17.1957103509 5.7319034503 14.3297586258
Fe 18.6286862135 7.1648793129 15.7627344883
Fe 17.1957103509 5.7319034503 17.1957103509
Fe 18.6286862135 7.1648793129 18.6286862135
Fe 17.1957103509 5.7319034503 20.0616620761
Fe 18.6286862135 7.1648793129 21.4946379386
Fe 17.1957103509 5.7319034503 22.9276138012
Fe 18.6286862135 7.1648793129 24.3605896638
Fe 17.1957103509 5.7319034503 25.7935655264
Fe 18.6286862135 7.1648793129 27.2265413889
Fe 17.1957103509 8.5978551755 0.0000000000
Fe 18.6286862135 10.0308310380 1.4329758626
Fe 17.1957103509 8.5978551755 2.8659517252
Fe 18.6286862135 10.0308310380 4.2989275877
Fe 17.1957103509 8.5978551755 5.7319034503
Fe 18.6286862135 10.0308310380 7.1648793129
Fe 17.1957103509 8.5978551755 8.5978551755
Fe 18.6286862135 10.0308310380 10.0308310380
Fe 17.1957103509 8.5978551755 11.4638069006
Fe 18.6286862135 10.0308310380 12.8967827632
Fe 17.1957103509 8.5978551755 14.3297586258
Fe 18.6286862135 10.0308310380 15.7627344883
Fe 17.1957103509 8.5978551755 17.1957103509
Fe 18.6286862135 10.0308310380 18.6286862135
Fe 17.1957103509 8.5978551755 20.0616620761
Fe 18.6286862135 10.0308310380 21.4946379386
Fe 17.1957103509 8.5978551755 22.9276138012
Fe 18.6286862135 10.0308310380 24.3605896638
Fe 17.1957103509 8.5978551755 25.7935655264
Fe 18.6286862135 10.0308310380 27.2265413889
Fe 17.1957103509 11.4638069006 0.0000000000
Fe 18.6286862135 12.8967827632 1.4329758626
Fe 17.1957103509 11.4638069006 2.8659517252
Fe 18.6286862135 12.8967827632 4.2989275877
Fe 17.1957103509 11.4638069006 5.7319034503
Fe 18.6286862135 12.8967827632 7.1648793129
Fe 17.1957103509 11.4638069006 8.5978551755
Fe 18.6286862135 12.8967827632 10.0308310380
Fe 17.1957103509 11.4638069006 11.4638069006
Fe 18.6286862135 12.8967827632 12.8967827632
Fe 17.1957103509 11.4638069006 14.3297586258
Fe 18.6286862135 12.8967827632 15.7627344883
Fe 17.1957103509 11.4638069006 17.1957103509
Fe 18.6286862135 12.8967827632 18.6286862135
Fe 17.1957103509 11.4638069006 20.0616620761
Fe 18.6286862135 12.8967827632 21.4946379386
Fe 17.1957103509 11.4638069006 22.9276138012
Fe 18.6286862135 12.8967827632 24.3605896638
Fe 17.1957103509 11.4638069006 25.7935655264
Fe 18.6286862135 12.8967827632 27.2265413889
Fe 17.1957103509 14.3297586258 0.0000000000
Fe 18.6286862135 15.7627344883 1.4329758626
Fe 17.1957103509 14.3297586258 2.8659517252
Fe 18.6286862135 15.7627344883 4.2989275877
Fe 17.1957103509 14.3297586258 5.7319034503
Fe 18.6286862135 15.7627344883 7.1648793129
Fe 17.1957103509 14.3297586258 8.5978551755
Fe 18.6286862135 15.7627344883 10.0308310380
Fe 17.1957103509 14.3297586258 11.4638069006
Fe 18.6286862135 15.7627344883 12.8967827632
Fe 17.1957103509 14.3297586258 14.3297586258
Fe 18.6286862135 15.7627344883 15.7627344883
Fe 17.1957103509 14.3297586258 17.1957103509
Fe 18.6286862135 15.7627344883 18.6286862135
Fe 17.1957103509 14.3297586258 20.0616620761
Fe 18.6286862135 15.7627344883 21.4946379386
Fe 17.1957103509 14.3297586258 22.9276138012
Fe 18.6286862135 15.7627344883 24.3605896638
Fe 17.1957103509 14.3297586258 25.7935655264
Fe 18.6286862135 15.7627344883 27.2265413889
Fe 17.1957103509 17.1957103509 0.0000000000
Fe 18.6286862135 18.6286862135 1.4329758626
Fe 17.1957103509 17.1957103509 2.8659517252
Fe 18.6286862135 18.6286862135 4.2989275877
Fe 17.1957103509 17.1957103509 5.7319034503
Fe 18.6286862135 18.6286862135 7.1648793129
Fe 17.1957103509 17.1957103509 8.5978551755
Fe 18.6286862135 18.6286862135 10.0308310380
Fe 17.1957103509 17.1957103509 11.4638069006
Fe 18.6286862135 18.6286862135 12.8967827632
Fe 17.1957103509 17.1957103509 14.3297586258
Fe 18.6286862135 18.6286862135 15.7627344883
Fe 17.1957103509 17.1957103509 17.1957103509
Fe 18.6286862135 18.6286862135 18.6286862135
Fe 17.1957103509 17.1957103509 20.0616620761
Fe 18.6286862135 18.6286862135 21.4946379386
Fe 17.1957103509 17.1957103509 22.9276138012
Fe 18.6286862135 18.6286862135 24.3605896638
Fe 17.1957103509 17.1957103509 25.7935655264
Fe 18.6286862135 18.6286862135 27.2265413889
Fe 17.1957103509 20.0616620761 0.0000000000
Fe 18.6286862135 21.4946379386 1.4329758626
Fe 17.1957103509 20.0616620761 2.8659517252
Fe 18.6286862135 21.4946379386 4.2989275877
Fe 17.1957103509 20.0616620761 5.7319034503
Fe 18.6286862135 21.4946379386 7.1648793129
Fe 17.1957103509 20.0616620761 8.5978551755
Fe 18.6286862135 21.4946379386 10.0308310380
Fe 17.1957103509 20.0616620761 11.4638069006
Fe 18.6286862135 21.4946379386 12.8967827632
Fe 17.1957103509 20.0616620761 14.3297586258
Fe 18.6286862135 21.4946379386 15.7627344883
Fe 17.1957103509 20.0616620761 17.1957103509
Fe 18.6286862135 21.4946379386 18.6286862135
Fe 17.1957103509 20.0616620761 20.0616620761
Fe 18.6286862135 21.4946379386 21.4946379386
Fe 17.1957103509 20.0616620761 22.9276138012
Fe 18.6286862135 21.4946379386 24.3605896638
Fe 17.1957103509 20.0616620761 25.7935655264
Fe 18.6286862135 21.4946379386 27.2265413889
Fe 17.1957103509 22.9276138012 0.0000000000
Fe 18.6286862135 24.3605896638 1.4329758626
Fe 17.1957103509 22.9276138012 2.8659517252
Fe 18.6286862135 24.3605896638 4.2989275877
Fe 17.1957103509 22.9276138012 5.7319034503
Fe 18.6286862135 24.3605896638 7.1648793129
Fe 17.1957103509 22.9276138012 8.5978551755
Fe 18.6286862135 24.3605896638 10.0308310380
Fe 17.1957103509 22.9276138012 11.4638069006
Fe 18.6286862135 24.3605896638 12.8967827632
Fe 17.1957103509 22.9276138012 14.3297586258
Fe 18.6286862135 24.3605896638 15.7627344883
Fe 17.1957103509 22.9276138012 17.1957103509
Fe 18.6286862135 24.3605896638 18.6286862135
Fe 17.1957103509 22.9276138012 20.0616620761
Fe 18.6286862135 24.3605896638 21.4946379386
Fe 17.1957103509 22.9276138012 22.9276138012
Fe 18.6286862135 24.3605896638 24.3605896638
Fe 17.1957103509 22.9276138012 25.7935655264
Fe 18.6286862135 24.3605896638 27.2265413889
Fe 17.1957103509 25.7935655264 0.0000000000
Fe 18.6286862135 27.2265413889 1.4329758626
Fe 17.1957103509 25.7935655264 2.8659517252
Fe 18.6286862135 27.2265413889 4.2989275877
Fe 17.1957103509 25.7935655264 5.7319034503
Fe 18.6286862135 27.2265413889 7.1648793129
Fe 17.1957103509 25.7935655264 8.5978551755
Fe 18.6286862135 27.2265413889 10.0308310380
Fe 17.1957103509 25.7935655264 11.4638069006
Fe 18.6286862135 27.2265413889 12.8967827632
Fe 17.1957103509 25.7935655264 14.3297586258
Fe 18.6286862135 27.2265413889 15.7627344883
Fe 17.1957103509 25.7935655264 17.1957103509
Fe 18.6286862135 27.2265413889 18.6286862135
Fe 17.1957103509 25.7935655264 20.0616620761
Fe 18.6286862135 27.2265413889 21.4946379386
Fe 17.1957103509 25.7935655264 22.9276138012
Fe 18.6286862135 27.2265413889 24.3605896638
Fe 17.1957103509 25.7935655264 25.7935655264
Fe 18.6286862135 27.2265413889 27.2265413889
Fe 20.0616620761 0.0000000000 0.0000000000
Fe 21.4946379386 1.4329758626 1.4329758626
Fe 20.0616620761 0.0000000000 2.8659517252
Fe 21.4946379386 1.4329758626 4.2989275877
Fe 20.0616620761 0.0000000000 5.7319034503
Fe 21.4946379386 1.4329758626 7.1648793129
Fe 20.0616620761 0.0000000000 8.5978551755
Fe 21.4946379386 1.4329758626 10.0308310380
Fe 20.0616620761 0.0000000000 11.4638069006
Fe 21.4946379386 1.4329758626 12.8967827632
Fe 20.0616620761 0.0000000000 14.3297586258
Fe 21.4946379386 1.4329758626 15.7627344883
Fe 20.0616620761 0.0000000000 17.1957103509
Fe 21.4946379386 1.4329758626 18.6286862135
Fe 20.0616620761 0.0000000000 20.0616620761
Fe 21.4946379386 1.4329758626 21.4946379386
Fe 20.0616620761 0.0000000000 22.9276138012
Fe 21.4946379386 1.4329758626 24.3605896638
Fe 20.0616620761 0.0000000000 25.7935655264
Fe 21.4946379386 1.4329758626 27.2265413889
Fe 20.0616620761 2.8659517252 0.0000000000
Fe 21.4946379386 4.2989275877 1.4329758626
Fe 20.0616620761 2.8659517252 2.8659517252
Fe 21.4946379386 4.2989275877 4.2989275877
Fe 20.0616620761 2.8659517252 5.7319034503
Fe 21.4946379386 4.2989275877 7.1648793129
Fe 20.0616620761 2.8659517252 8.5978551755
Fe 21.4946379386 4.2989275877 10.0308310380
Fe 20.0616620761 2.8659517252 11.4638069006
Fe 21.4946379386 4.2989275877 12.8967827632
Fe 20.0616620761 2.8659517252 14.3297586258
Fe 21.4946379386 4.2989275877 15.7627344883
Fe 20.0616620761 2.8659517252 17.1957103509
Fe 21.4946379386 4.2989275877 18.6286862135
Fe 20.0616620761 2.8659517252 20.0616620761
Fe 21.4946379386 4.2989275877 21.4946379386
Fe 20.0616620761 2.8659517252 22.9276138012
Fe 21.4946379386 4.2989275877 24.3605896638
Fe 20.0616620761 2.8659517252 25.7935655264
Fe 21.4946379386 4.2989275877 27.2265413889
Fe 20.0616620761 5.7319034503 0.0000000000
Fe 21.4946379386 7.1648793129 1.4329758626
Fe 20.0616620761 5.7319034503 2.8659517252
Fe 21.4946379386 7.1648793129 4.2989275877
Fe 20.0616620761 5.7319034503 5.7319034503
Fe 21.4946379386 7.1648793129 7.1648793129
Fe 20.0616620761 5.7319034503 8.5978551755
Fe 21.4946379386 7.1648793129 10.0308310380
Fe 20.0616620761 5.7319034503 11.4638069006
Fe 21.4946379386 7.1648793129 12.8967827632
Fe 20.0616620761 5.7319034503 14.3297586258
Fe 21.4946379386 7.1648793129 15.7627344883
Fe 20.0616620761 5.7319034503 17.1957103509
Fe 21.4946379386 7.1648793129 18.6286862135
Fe 20.0616620761 5.7319034503 20.0616620761
Fe 21.4946379386 7.1648793129 21.4946379386
Fe 20.0616620761 5.7319034503 22.9276138012
Fe 21.4946379386 7.1648793129 24.3605896638
Fe 20.0616620761 5.7319034503 25.7935655264
Fe 21.4946379386 7.1648793129 27.2265413889
Fe 20.0616620761 8.5978551755 0.0000000000
Fe 21.4946379386 10.0308310380 1.4329758626
Fe 20.0616620761 8.5978551755 2.8659517252
Fe 21.4946379386 10.0308310380 4.2989275877
Fe 20.0616620761 8.5978551755 5.7319034503
Fe 21.4946379386 10.0308310380 7.1648793129
Fe 20.0616620761 8.5978551755 8.5978551755
Fe 21.4946379386 10.0308310380 10.0308310380
Fe 20.0616620761 8.5978551755 11.4638069006
Fe 21.4946379386 10.0308310380 12.8967827632
Fe 20.0616620761 8.5978551755 14.3297586258
Fe 21.4946379386 10.0308310380 15.7627344883
Fe 20.0616620761 8.5978551755 17.1957103509
Fe 21.4946379386 10.0308310380 18.6286862135
Fe 20.0616620761 8.5978551755 20.0616620761
Fe 21.4946379386 10.0308310380 21.4946379386
Fe 20.0616620761 8.5978551755 22.9276138012
Fe 21.4946379386 10.0308310380 24.3605896638
Fe 20.0616620761 8.5978551755 25.7935655264
Fe 21.4946379386 10.0308310380 27.2265413889
Fe 20.0616620761 11.4638069006 0.0000000000
Fe 21.4946379386 12.8967827632 1.4329758626
Fe 20.0616620761 11.4638069006 2.8659517252
Fe 21.4946379386 12.8967827632 4.2989275877
Fe 20.0616620761 11.4638069006 5.7319034503
Fe 21.4946379386 12.8967827632 7.1648793129
Fe 20.0616620761 11.4638069006 8.5978551755
Fe 21.4946379386 12.8967827632 10.0308310380
Fe 20.0616620761 11.4638069006 11.4638069006
Fe 21.4946379386 12.8967827632 12.8967827632
Fe 20.0616620761 11.4638069006 14.3297586258
Fe 21.4946379386 12.8967827632 15.7627344883
Fe 20.0616620761 11.4638069006 17.1957103509
Fe 21.4946379386 12.8967827632 18.6286862135
Fe 20.0616620761 11.4638069006 20.0616620761
Fe 21.4946379386 12.8967827632 21.4946379386
Fe 20.0616620761 11.4638069006 22.9276138012
Fe 21.4946379386 12.8967827632 24.3605896638
Fe 20.0616620761 11.4638069006 25.7935655264
Fe 21.4946379386 12.8967827632 27.2265413889
Fe 20.0616620761 14.3297586258 0.0000000000
Fe 21.4946379386 15.7627344883 1.4329758626
Fe 20.0616620761 14.3297586258 2.8659517252
Fe 21.4946379386 15.7627344883 4.2989275877
Fe 20.0616620761 14.3297586258 5.7319034503
Fe 21.4946379386 15.7627344883 7.1648793129
Fe 20.0616620761 14.3297586258 8.5978551755
Fe 21.4946379386 15.7627344883 10.0308310380
Fe 20.0616620761 14.3297586258 11.4638069006
Fe 21.4946379386 15.7627344883 12.8967827632
Fe 20.0616620761 14.3297586258 14.3297586258
Fe 21.4946379386 15.7627344883 15.7627344883
Fe 20.0616620761 14.3297586258 17.1957103509
Fe 21.4946379386 15.7627344883 18.6286862135
Fe 20.0616620761 14.3297586258 20.0616620761
Fe 21.4946379386 15.7627344883 21.4946379386
Fe 20.0616620761 14.3297586258 22.9276138012
Fe 21.4946379386 15.7627344883 24.3605896638
Fe 20.0616620761 14.3297586258 25.7935655264
Fe 21.4946379386 15.7627344883 27.2265413889
Fe 20.0616620761 17.1957103509 0.0000000000
Fe 21.4946379386 18.6286862135 1.4329758626
Fe 20.0616620761 17.1957103509 2.8659517252
Fe 21.4946379386 18.6286862135 4.2989275877
Fe 20.0616620761 17.1957103509 5.7319034503
Fe 21.4946379386 18.6286862135 7.1648793129
Fe 20.0616620761 17.1957103509 8.5978551755
Fe 21.4946379386 18.6286862135 10.0308310380
Fe 20.0616620761 17.1957103509 11.4638069006
Fe 21.4946379386 18.6286862135 12.8967827632
Fe 20.0616620761 17.1957103509 14.3297586258
Fe 21.4946379386 18.6286862135 15.7627344883
Fe 20.0616620761 17.1957103509 17.1957103509
Fe 21.4946379386 18.6286862135 18.6286862135
Fe 20.0616620761 17.1957103509 20.0616620761
Fe 21.4946379386 18.6286862135 21.4946379386
Fe 20.0616620761 17.1957103509 22.9276138012
Fe 21.4946379386 18.6286862135 24.3605896638
Fe 20.0616620761 17.1957103509 25.7935655264
Fe 21.4946379386 18.6286862135 27.2265413889
Fe 20.0616620761 20.0616620761 0.0000000000
Fe 21.4946379386 21.4946379386 1.4329758626
Fe 20.0616620761 20.0616620761 2.8659517252
Fe 21.4946379386 21.4946379386 4.2989275877
Fe 20.0616620761 20.0616620761 5.7319034503
Fe 21.4946379386 21.4946379386 7.1648793129
Fe 20.0616620761 20.0616620761 8.5978551755
Fe 21.4946379386 21.4946379386 10.0308310380
Fe 20.0616620761 20.0616620761 11.4638069006
Fe 21.4946379386 21.4946379386 12.8967827632
Fe 20.0616620761 20.0616620761 14.3297586258
Fe 21.4946379386 21.4946379386 15.7627344883
Fe 20.0616620761 20.0616620761 17.1957103509
Fe 21.4946379386 21.4946379386 18.6286862135
Fe 20.0616620761 20.0616620761 20.0616620761
Fe 21.4946379386 21.4946379386 21.4946379386
Fe 20.0616620761 20.0616620761 22.9276138012
Fe 21.4946379386 21.4946379386 24.3605896638
Fe 20.0616620761 20.0616620761 25.7935655264
Fe 21.4946379386 21.4946379386 27.2265413889
Fe 20.0616620761 22.9276138012 0.0000000000
Fe 21.4946379386 24.3605896638 1.4329758626
Fe 20.0616620761 22.9276138012 2.8659517252
Fe 21.4946379386 24.3605896638 4.2989275877
Fe 20.0616620761 22.9276138012 5.7319034503
Fe 21.4946379386 24.3605896638 7.1648793129
Fe 20.0616620761 22.9276138012 8.5978551755
Fe 21.4946379386 24.3605896638 10.0308310380
Fe 20.0616620761 22.9276138012 11.4638069006
Fe 21.4946379386 24.3605896638 12.8967827632
Fe 20.0616620761 22.9276138012 14.3297586258
Fe 21.4946379386 24.3605896638 15.7627344883
Fe 20.0616620761 22.9276138012 17.1957103509
Fe 21.4946379386 24.3605896638 18.6286862135
Fe 20.0616620761 22.9276138012 20.0616620761
Fe 21.4946379386 24.3605896638 21.4946379386
Fe 20.0616620761 22.9276138012 22.9276138012
Fe 21.4946379386 24.3605896638 24.3605896638
Fe 20.0616620761 22.9276138012 25.7935655264
Fe 21.4946379386 24.3605896638 27.2265413889
Fe 20.0616620761 25.7935655264 0.0000000000
Fe 21.4946379386 27.2265413889 1.4329758626
Fe 20.0616620761 25.7935655264 2.8659517252
Fe 21.4946379386 27.2265413889 4.2989275877
Fe 20.0616620761 25.7935655264 5.7319034503
Fe 21.4946379386 27.2265413889 7.1648793129
Fe 20.0616620761 25.7935655264 8.5978551755
Fe 21.4946379386 27.2265413889 10.0308310380
Fe 20.0616620761 25.7935655264 11.4638069006
Fe 21.4946379386 27.2265413889 12.8967827632
Fe 20.0616620761 25.7935655264 14.3297586258
Fe 21.4946379386 27.2265413889 15.7627344883
Fe 20.0616620761 25.7935655264 17.1957103509
Fe 21.4946379386 27.2265413889 18.6286862135
Fe 20.0616620761 25.7935655264 20.0616620761
Fe 21.4946379386 27.2265413889 21.4946379386
Fe 20.0616620761 25.7935655264 22.9276138012
Fe 21.4946379386 27.2265413889 24.3605896638
Fe 20.0616620761 25.7935655264 25.7935655264
Fe 21.4946379386 27.2265413889 27.2265413889
Fe 22.9276138012 0.0000000000 0.0000000000
Fe 24.3605896638 1.4329758626 1.4329758626
Fe 22.9276138012 0.0000000000 2.8659517252
Fe 24.3605896638 1.4329758626 4.2989275877
Fe 22.9276138012 0.0000000000 5.7319034503
Fe 24.3605896638 1.4329758626 7.1648793129
Fe 22.9276138012 0.0000000000 8.5978551755
Fe 24.3605896638 1.4329758626 10.0308310380
Fe 22.9276138012 0.0000000000 11.4638069006
Fe 24.3605896638 1.4329758626 12.8967827632
Fe 22.9276138012 0.0000000000 14.3297586258
Fe 24.3605896638 1.4329758626 15.7627344883
Fe 22.9276138012 0.0000000000 17.1957103509
Fe 24.3605896638 1.4329758626 18.6286862135
Fe 22.9276138012 0.0000000000 20.0616620761
Fe 24.3605896638 1.4329758626 21.4946379386
Fe 22.9276138012 0.0000000000 22.9276138012
Fe 24.3605896638 1.4329758626 24.3605896638
Fe 22.9276138012 0.0000000000 25.7935655264
Fe 24.3605896638 1.4329758626 27.2265413889
Fe 22.9276138012 2.8659517252 0.0000000000
Fe 24.3605896638 4.2989275877 1.4329758626
Fe 22.9276138012 2.8659517252 2.8659517252
Fe 24.3605896638 4.2989275877 4.2989275877
Fe 22.9276138012 2.8659517252 5.7319034503
Fe 24.3605896638 4.2989275877 7.1648793129
Fe 22.9276138012 2.8659517252 8.5978551755
Fe 24.3605896638 4.2989275877 10.0308310380
Fe 22.9276138012 2.8659517252 11.4638069006
Fe 24.3605896638 4.2989275877 12.8967827632
Fe 22.9276138012 2.8659517252 14.3297586258
Fe 24.3605896638 4.2989275877 15.7627344883
Fe 22.9276138012 2.8659517252 17.1957103509
Fe 24.3605896638 4.2989275877 18.6286862135
Fe 22.9276138012 2.8659517252 20.0616620761
Fe 24.3605896638 4.2989275877 21.4946379386
Fe 22.9276138012 2.8659517252 22.9276138012
Fe 24.3605896638 4.2989275877 24.3605896638
Fe 22.9276138012 2.8659517252 25.7935655264
Fe 24.3605896638 4.2989275877 27.2265413889
Fe 22.9276138012 5.7319034503 0.0000000000
Fe 24.3605896638 7.1648793129 1.4329758626
Fe 22.9276138012 5.7319034503 2.8659517252
Fe 24.3605896638 7.1648793129 4.2989275877
Fe 22.9276138012 5.7319034503 5.7319034503
Fe 24.3605896638 7.1648793129 7.1648793129
Fe 22.9276138012 5.7319034503 8.5978551755
Fe 24.3605896638 7.1648793129 10.0308310380
Fe 22.9276138012 5.7319034503 11.4638069006
Fe 24.3605896638 7.1648793129 12.8967827632
Fe 22.9276138012 5.7319034503 14.3297586258
Fe 24.3605896638 7.1648793129 15.7627344883
Fe 22.9276138012 5.7319034503 17.1957103509
Fe 24.3605896638 7.1648793129 18.6286862135
Fe 22.9276138012 5.7319034503 20.0616620761
Fe 24.3605896638 7.1648793129 21.4946379386
Fe 22.9276138012 5.7319034503 22.9276138012
Fe 24.3605896638 7.1648793129 24.3605896638
Fe 22.9276138012 5.7319034503 25.7935655264
Fe 24.3605896638 7.1648793129 27.2265413889
Fe 22.9276138012 8.5978551755 0.0000000000
Fe 24.3605896638 10.0308310380 1.4329758626
Fe 22.9276138012 8.5978551755 2.8659517252
Fe 24.3605896638 10.0308310380 4.2989275877
Fe 22.9276138012 8.5978551755 5.7319034503
Fe 24.3605896638 10.0308310380 7.1648793129
Fe 22.9276138012 8.5978551755 8.5978551755
Fe 24.3605896638 10.0308310380 10.0308310380
Fe 22.9276138012 8.5978551755 11.4638069006
Fe 24.3605896638 10.0308310380 12.8967827632
Fe 22.9276138012 8.5978551755 14.3297586258
Fe 24.3605896638 10.0308310380 15.7627344883
Fe 22.9276138012 8.5978551755 17.1957103509
Fe 24.3605896638 10.0308310380 18.6286862135
Fe 22.9276138012 8.5978551755 20.0616620761
Fe 24.3605896638 10.0308310380 21.4946379386
Fe 22.9276138012 8.5978551755 22.9276138012
Fe 24.3605896638 10.0308310380 24.3605896638
Fe 22.9276138012 8.5978551755 25.7935655264
Fe 24.3605896638 10.0308310380 27.2265413889
Fe 22.9276138012 11.4638069006 0.0000000000
Fe 24.3605896638 12.8967827632 1.4329758626
Fe 22.9276138012 11.4638069006 2.8659517252
Fe 24.3605896638 12.8967827632 4.2989275877
Fe 22.9276138012 11.4638069006 5.7319034503
Fe 24.3605896638 12.8967827632 7.1648793129
Fe 22.9276138012 11.4638069006 8.5978551755
Fe 24.3605896638 12.8967827632 10.0308310380
Fe 22.9276138012 11.4638069006 11.4638069006
Fe 24.3605896638 12.8967827632 12.8967827632
Fe 22.9276138012 11.4638069006 14.3297586258
Fe 24.3605896638 12.8967827632 15.7627344883
Fe 22.9276138012 11.4638069006 17.1957103509
Fe 24.3605896638 12.8967827632 18.6286862135
Fe 22.9276138012 11.4638069006 20.0616620761
Fe 24.3605896638 12.8967827632 21.4946379386
Fe 22.9276138012 11.4638069006 22.9276138012
Fe 24.3605896638 12.8967827632 24.3605896638
Fe 22.9276138012 11.4638069006 25.7935655264
Fe 24.3605896638 12.8967827632 27.2265413889
Fe 22.9276138012 14.3297586258 0.0000000000
Fe 24.3605896638 15.7627344883 1.4329758626
Fe 22.9276138012 14.3297586258 2.8659517252
Fe 24.3605896638 15.7627344883 4.2989275877
Fe 22.9276138012 14.3297586258 5.7319034503
Fe 24.3605896638 15.7627344883 7.1648793129
Fe 22.9276138012 14.3297586258 8.5978551755
Fe 24.3605896638 15.7627344883 10.0308310380
Fe 22.9276138012 14.3297586258 11.4638069006
Fe 24.3605896638 15.7627344883 12.8967827632
Fe 22.9276138012 14.3297586258 14.3297586258
Fe 24.3605896638 15.7627344883 15.7627344883
Fe 22.9276138012 14.3297586258 17.1957103509
Fe 24.3605896638 15.7627344883 18.6286862135
Fe 22.9276138012 14.3297586258 20.0616620761
Fe 24.3605896638 15.7627344883 21.4946379386
Fe 22.9276138012 14.3297586258 22.9276138012
Fe 24.3605896638 15.7627344883 24.3605896638
Fe 22.9276138012 14.3297586258 25.7935655264
Fe 24.3605896638 15.7627344883 27.2265413889
Fe 22.9276138012 17.1957103509 0.0000000000
Fe 24.3605896638 18.6286862135 1.4329758626
Fe 22.9276138012 17.1957103509 2.8659517252
Fe 24.3605896638 18.6286862135 4.2989275877
Fe 22.9276138012 17.1957103509 5.7319034503
Fe 24.3605896638 18.6286862135 7.1648793129
Fe 22.9276138012 17.1957103509 8.5978551755
Fe 24.3605896638 18.6286862135 10.0308310380
Fe 22.9276138012 17.1957103509 11.4638069006
Fe 24.3605896638 18.6286862135 12.8967827632
Fe 22.9276138012 17.1957103509 14.3297586258
Fe 24.3605896638 18.6286862135 15.7627344883
Fe 22.9276138012 17.1957103509 17.1957103509
Fe 24.3605896638 18.6286862135 18.6286862135
Fe 22.9276138012 17.1957103509 20.0616620761
Fe 24.3605896638 18.6286862135 21.4946379386
Fe 22.9276138012 17.1957103509 22.9276138012
Fe 24.3605896638 18.6286862135 24.3605896638
Fe 22.9276138012 17.1957103509 25.7935655264
Fe 24.3605896638 18.6286862135 27.2265413889
Fe 22.9276138012 20.0616620761 0.0000000000
Fe 24.3605896638 21.4946379386 1.4329758626
Fe 22.9276138012 20.0616620761 2.8659517252
Fe 24.3605896638 21.4946379386 4.2989275877
Fe 22.9276138012 20.0616620761 5.7319034503
Fe 24.3605896638 21.4946379386 7.1648793129
Fe 22.9276138012 20.0616620761 8.5978551755
Fe 24.3605896638 21.4946379386 10.0308310380
Fe 22.9276138012 20.0616620761 11.4638069006
Fe 24.3605896638 21.4946379386 12.8967827632
Fe 22.9276138012 20.0616620761 14.3297586258
Fe 24.3605896638 21.4946379386 15.7627344883
Fe 22.9276138012 20.0616620761 17.1957103509
Fe 24.3605896638 21.4946379386 18.6286862135
Fe 22.9276138012 20.0616620761 20.0616620761
Fe 24.3605896638 21.4946379386 21.4946379386
Fe 22.9276138012 20.0616620761 22.9276138012
Fe 24.3605896638 21.4946379386 24.3605896638
Fe 22.9276138012 20.0616620761 25.7935655264
Fe 24.3605896638 21.4946379386 27.2265413889
Fe 22.9276138012 22.9276138012 0.0000000000
Fe 24.3605896638 24.3605896638 1.4329758626
Fe 22.9276138012 22.9276138012 2.8659517252
Fe 24.3605896638 24.3605896638 4.2989275877
Fe 22.9276138012 22.9276138012 5.7319034503
Fe 24.3605896638 24.3605896638 7.1648793129
Fe 22.9276138012 22.9276138012 8.5978551755
Fe 24.3605896638 24.3605896638 10.0308310380
Fe 22.9276138012 22.9276138012 11.4638069006
Fe 24.3605896638 24.3605896638 12.8967827632
Fe 22.9276138012 22.9276138012 14.3297586258
Fe 24.3605896638 24.3605896638 15.7627344883
Fe 22.9276138012 22.9276138012 17.1957103509
Fe 24.3605896638 24.3605896638 18.6286862135
Fe 22.9276138012 22.9276138012 20.0616620761
Fe 24.3605896638 24.3605896638 21.4946379386
Fe 22.9276138012 22.9276138012 22.9276138012
Fe 24.3605896638 24.3605896638 24.3605896638
Fe 22.9276138012 22.9276138012 25.7935655264
Fe 24.3605896638 24.3605896638 27.2265413889
Fe 22.9276138012 25.7935655264 0.0000000000
Fe 24.3605896638 27.2265413889 1.4329758626
Fe 22.9276138012 25.7935655264 2.8659517252
Fe 24.3605896638 27.2265413889 4.2989275877
Fe 22.9276138012 25.7935655264 5.7319034503
Fe 24.3605896638 27.2265413889 7.1648793129
Fe 22.9276138012 25.7935655264 8.5978551755
Fe 24.3605896638 27.2265413889 10.0308310380
Fe 22.9276138012 25.7935655264 11.4638069006
Fe 24.3605896638 27.2265413889 12.8967827632
Fe 22.9276138012 25.7935655264 14.3297586258
Fe 24.3605896638 27.2265413889 15.7627344883
Fe 22.9276138012 25.7935655264 17.1957103509
Fe 24.3605896638 27.2265413889 18.6286862135
Fe 22.9276138012 25.7935655264 20.0616620761
Fe 24.3605896638 27.2265413889 21.4946379386
Fe 22.9276138012 25.7935655264 22.9276138012
Fe 24.3605896638 27.2265413889 24.3605896638
Fe 22.9276138012 25.7935655264 25.7935655264
Fe 24.3605896638 27.2265413889 27.2265413889
Fe 25.7935655264 0.0000000000 0.0000000000
Fe 27.2265413889 1.4329758626 1.4329758626
Fe 25.7935655264 0.0000000000 2.8659517252
Fe 27.2265413889 1.4329758626 4.2989275877
Fe 25.7935655264 0.0000000000 5.7319034503
Fe 27.2265413889 1.4329758626 7.1648793129
Fe 25.7935655264 0.0000000000 8.5978551755
Fe 27.2265413889 1.4329758626 10.0308310380
Fe 25.7935655264 0.0000000000 11.4638069006
Fe 27.2265413889 1.4329758626 12.8967827632
Fe 25.7935655264 0.0000000000 14.3297586258
Fe 27.2265413889 1.4329758626 15.7627344883
Fe 25.7935655264 0.0000000000 17.1957103509
Fe 27.2265413889 1.4329758626 18.6286862135
Fe 25.7935655264 0.0000000000 20.0616620761
Fe 27.2265413889 1.4329758626 21.4946379386
Fe 25.7935655264 0.0000000000 22.9276138012
Fe 27.2265413889 1.4329758626 24.3605896638
Fe 25.7935655264 0.0000000000 25.7935655264
Fe 27.2265413889 1.4329758626 27.2265413889
Fe 25.7935655264 2.8659517252 0.0000000000
Fe 27.2265413889 4.2989275877 1.4329758626
Fe 25.7935655264 2.8659517252 2.8659517252
Fe 27.2265413889 4.2989275877 4.2989275877
Fe 25.7935655264 2.8659517252 5.7319034503
Fe 27.2265413889 4.2989275877 7.1648793129
Fe 25.7935655264 2.8659517252 8.5978551755
Fe 27.2265413889 4.2989275877 10.0308310380
Fe 25.7935655264 2.8659517252 11.4638069006
Fe 27.2265413889 4.2989275877 12.8967827632
Fe 25.7935655264 2.8659517252 14.3297586258
Fe 27.2265413889 4.2989275877 15.7627344883
Fe 25.7935655264 2.8659517252 17.1957103509
Fe 27.2265413889 4.2989275877 18.6286862135
Fe 25.7935655264 2.8659517252 20.0616620761
Fe 27.2265413889 4.2989275877 21.4946379386
Fe 25.7935655264 2.8659517252 22.9276138012
Fe 27.2265413889 4.2989275877 24.3605896638
Fe 25.7935655264 2.8659517252 25.7935655264
Fe 27.2265413889 4.2989275877 27.2265413889
Fe 25.7935655264 5.7319034503 0.0000000000
Fe 27.2265413889 7.1648793129 1.4329758626
Fe 25.7935655264 5.7319034503 2.8659517252
Fe 27.2265413889 7.1648793129 4.2989275877
Fe 25.7935655264 5.7319034503 5.7319034503
Fe 27.2265413889 7.1648793129 7.1648793129
Fe 25.7935655264 5.7319034503 8.5978551755
Fe 27.2265413889 7.1648793129 10.0308310380
Fe 25.7935655264 5.7319034503 11.4638069006
Fe 27.2265413889 7.1648793129 12.8967827632
Fe 25.7935655264 5.7319034503 14.3297586258
Fe 27.2265413889 7.1648793129 15.7627344883
Fe 25.7935655264 5.7319034503 17.1957103509
Fe 27.2265413889 7.1648793129 18.6286862135
Fe 25.7935655264 5.7319034503 20.0616620761
Fe 27.2265413889 7.1648793129 21.4946379386
Fe 25.7935655264 5.7319034503 22.9276138012
Fe 27.2265413889 7.1648793129 24.3605896638
Fe 25.7935655264 5.7319034503 25.7935655264
Fe 27.2265413889 7.1648793129 27.2265413889
Fe 25.7935655264 8.5978551755 0.0000000000
Fe 27.2265413889 10.0308310380 1.4329758626
Fe 25.7935655264 8.5978551755 2.8659517252
Fe 27.2265413889 10.0308310380 4.2989275877
Fe 25.7935655264 8.5978551755 5.7319034503
Fe 27.2265413889 10.0308310380 7.1648793129
Fe 25.7935655264 8.5978551755 8.5978551755
Fe 27.2265413889 10.0308310380 10.0308310380
Fe 25.7935655264 8.5978551755 11.4638069006
Fe 27.2265413889 10.0308310380 12.8967827632
Fe 25.7935655264 8.5978551755 14.3297586258
Fe 27.2265413889 10.0308310380 15.7627344883
Fe 25.7935655264 8.5978551755 17.1957103509
Fe 27.2265413889 10.0308310380 18.6286862135
Fe 25.7935655264 8.5978551755 20.0616620761
Fe 27.2265413889 10.0308310380 21.4946379386
Fe 25.7935655264 8.5978551755 22.9276138012
Fe 27.2265413889 10.0308310380 24.3605896638
Fe 25.7935655264 8.5978551755 25.7935655264
Fe 27.2265413889 10.0308310380 27.2265413889
Fe 25.7935655264 11.4638069006 0.0000000000
Fe 27.2265413889 12.8967827632 1.4329758626
Fe 25.7935655264 11.4638069006 2.8659517252
Fe 27.2265413889 12.8967827632 4.2989275877
Fe 25.7935655264 11.4638069006 5.7319034503
Fe 27.2265413889 12.8967827632 7.1648793129
Fe 25.7935655264 11.4638069006 8.5978551755
Fe 27.2265413889 12.8967827632 10.0308310380
Fe 25.7935655264 11.4638069006 11.4638069006
Fe 27.2265413889 12.8967827632 12.8967827632
Fe 25.7935655264 11.4638069006 14.3297586258
Fe 27.2265413889 12.8967827632 15.7627344883
Fe 25.7935655264 11.4638069006 17.1957103509
Fe 27.2265413889 12.8967827632 18.6286862135
Fe 25.7935655264 11.4638069006 20.0616620761
Fe 27.2265413889 12.8967827632 21.4946379386
Fe 25.7935655264 11.4638069006 22.9276138012
Fe 27.2265413889 12.8967827632 24.3605896638
Fe 25.7935655264 11.4638069006 25.7935655264
Fe 27.2265413889 12.8967827632 27.2265413889
Fe 25.7935655264 14.3297586258 0.0000000000
Fe 27.2265413889 15.7627344883 1.4329758626
Fe 25.7935655264 14.3297586258 2.8659517252
Fe 27.2265413889 15.7627344883 4.2989275877
Fe 25.7935655264 14.3297586258 5.7319034503
Fe 27.2265413889 15.7627344883 7.1648793129
Fe 25.7935655264 14.3297586258 8.5978551755
Fe 27.2265413889 15.7627344883 10.0308310380
Fe 25.7935655264 14.3297586258 11.4638069006
Fe 27.2265413889 15.7627344883 12.8967827632
Fe 25.7935655264 14.3297586258 14.3297586258
Fe 27.2265413889 15.7627344883 15.7627344883
Fe 25.7935655264 14.3297586258 17.1957103509
Fe 27.2265413889 15.7627344883 18.6286862135
Fe 25.7935655264 14.3297586258 20.0616620761
Fe 27.2265413889 15.7627344883 21.4946379386
Fe 25.7935655264 14.3297586258 22.9276138012
Fe 27.2265413889 15.7627344883 24.3605896638
Fe 25.7935655264 14.3297586258 25.7935655264
Fe 27.2265413889 15.7627344883 27.2265413889
Fe 25.7935655264 17.1957103509 0.0000000000
Fe 27.2265413889 18.6286862135 1.4329758626
Fe 25.7935655264 17.1957103509 2.8659517252
Fe 27.2265413889 18.6286862135 4.2989275877
Fe 25.7935655264 17.1957103509 5.7319034503
Fe 27.2265413889 18.6286862135 7.1648793129
Fe 25.7935655264 17.1957103509 8.5978551755
Fe 27.2265413889 18.6286862135 10.0308310380
Fe 25.7935655264 17.1957103509 11.4638069006
Fe 27.2265413889 18.6286862135 12.8967827632
Fe 25.7935655264 17.1957103509 14.3297586258
Fe 27.2265413889 18.6286862135 15.7627344883
Fe 25.7935655264 17.1957103509 17.1957103509
Fe 27.2265413889 18.6286862135 18.6286862135
Fe 25.7935655264 17.1957103509 20.0616620761
Fe 27.2265413889 18.6286862135 21.4946379386
Fe 25.7935655264 17.1957103509 22.9276138012
Fe 27.2265413889 18.6286862135 24.3605896638
Fe 25.7935655264 17.1957103509 25.7935655264
Fe 27.2265413889 18.6286862135 27.2265413889
Fe 25.7935655264 20.0616620761 0.0000000000
Fe 27.2265413889 21.4946379386 1.4329758626
Fe 25.7935655264 20.0616620761 2.8659517252
Fe 27.2265413889 21.4946379386 4.2989275877
Fe 25.7935655264 20.0616620761 5.7319034503
Fe 27.2265413889 21.4946379386 7.1648793129
Fe 25.7935655264 20.0616620761 8.5978551755
Fe 27.2265413889 21.4946379386 10.0308310380
Fe 25.7935655264 20.0616620761 11.4638069006
Fe 27.2265413889 21.4946379386 12.8967827632
Fe 25.7935655264 20.0616620761 14.3297586258
Fe 27.2265413889 21.4946379386 15.7627344883
Fe 25.7935655264 20.0616620761 17.1957103509
Fe 27.2265413889 21.4946379386 18.6286862135
Fe 25.7935655264 20.0616620761 20.0616620761
Fe 27.2265413889 21.4946379386 21.4946379386
Fe 25.7935655264 20.0616620761 22.9276138012
Fe 27.2265413889 21.4946379386 24.3605896638
Fe 25.7935655264 20.0616620761 25.7935655264
Fe 27.2265413889 21.4946379386 27.2265413889
Fe 25.7935655264 22.9276138012 0.0000000000
Fe 27.2265413889 24.3605896638 1.4329758626
Fe 25.7935655264 22.9276138012 2.8659517252
Fe 27.2265413889 24.3605896638 4.2989275877
Fe 25.7935655264 22.9276138012 5.7319034503
Fe 27.2265413889 24.3605896638 7.1648793129
Fe 25.7935655264 22.9276138012 8.5978551755
Fe 27.2265413889 24.3605896638 10.0308310380
Fe 25.7935655264 22.9276138012 11.4638069006
Fe 27.2265413889 24.3605896638 12.8967827632
Fe 25.7935655264 22.9276138012 14.3297586258
Fe 27.2265413889 24.3605896638 15.7627344883
Fe 25.7935655264 22.9276138012 17.1957103509
Fe 27.2265413889 24.3605896638 18.6286862135
Fe 25.7935655264 22.9276138012 20.0616620761
Fe 27.2265413889 24.3605896638 21.4946379386
Fe 25.7935655264 22.9276138012 22.9276138012
Fe 27.2265413889 24.3605896638 24.3605896638
Fe 25.7935655264 22.9276138012 25.7935655264
Fe 27.2265413889 24.3605896638 27.2265413889
Fe 25.7935655264 25.7935655264 0.0000000000
Fe 27.2265413889 27.2265413889 1.4329758626
Fe 25.7935655264 25.7935655264 2.8659517252
Fe 27.2265413889 27.2265413889 4.2989275877
Fe 25.7935655264 25.7935655264 5.7319034503
Fe 27.2265413889 27.2265413889 7.1648793129
Fe 25.7935655264 25.7935655264 8.5978551755
Fe 27.2265413889 27.2265413889 10.0308310380
Fe 25.7935655264 25.7935655264 11.4638069006
Fe 27.2265413889 27.2265413889 12.8967827632
Fe 25.7935655264 25.7935655264 14.3297586258
Fe 27.2265413889 27.2265413889 15.7627344883
Fe 25.7935655264 25.7935655264 17.1957103509
Fe 27.2265413889 27.2265413889 18.6286862135
Fe 25.7935655264 25.7935655264 20.0616620761
Fe 27.2265413889 27.2265413889 21.4946379386
Fe 25.7935655264 25.7935655264 22.9276138012
Fe 27.2265413889 27.2265413889 24.3605896638
Fe 25.7935655264 25.7935655264 25.7935655264
Fe 27.2265413889 27.2265413889 27.2265413889
