8
Lattice="5.4310000000 0.0000000000 0.0000000000 0.0000000000 5.4310000000 0.0000000000 0.0000000000 0.0000000000 5.4310000000" Properties=species:S:1:pos:R:3 pbc="T T T" case=t89_si_diamond
Si 0.0000000000 0.0000000000 0.0000000000
Si 0.0000000000 2.7155000000 2.7155000000
Si 2.7155000000 0.0000000000 2.7155000000
Si 2.7155000000 2.7155000000 0.0000000000
Si 1.3577500000 1.3577500000 1.3577500000
Si 1.3577500000 4.0732500000 4.0732500000
Si 4.0732500000 1.3577500000 4.0732500000
Si 4.0732500000 4.0732500000 1.3577500000
