8
Lattice="3.567 0.0 0.0 0.0 3.567 0.0 0.0 0.0 3.567" Properties=species:S:1:pos:R:3 pbc="T T T"
C        0.00000000       0.00000000       0.00000000
C        0.89175000       0.89175000       0.89175000
C        0.00000000       1.78350000       1.78350000
C        0.89175000       2.67525000       2.67525000
C        1.78350000       0.00000000       1.78350000
C        2.67525000       0.89175000       2.67525000
C        1.78350000       1.78350000       0.00000000
C        2.67525000       2.67525000       0.89175000
