64
Lattice="9.931815000 0.000000000 0.000000000 4.965900000 8.601546000 0.000000000 0.000000000 0.000000000 50.000000000" Properties=species:S:1:pos:R:3 pbc="T T T"
C 9.93181 0.00357 24.21893
C 1.24147 0.72037 24.21881
C 11.17328 2.15396 24.21893
C 2.48294 2.87076 24.21881
C 12.41476 4.30435 24.21893
C 3.72442 5.02115 24.21881
C 13.65623 6.45473 24.21893
C 4.96589 7.17153 24.21881
C 2.48295 0.00357 24.21893
C 3.72442 0.72037 24.21881
C 3.72442 2.15396 24.21893
C 4.9659 2.87076 24.21881
C 4.9659 4.30435 24.21893
C 6.20737 5.02115 24.21881
C 6.20737 6.45473 24.21893
C 7.44885 7.17153 24.21881
C 4.9659 0.00357 24.21893
C 6.20738 0.72037 24.21881
C 6.20738 2.15396 24.21893
C 7.44885 2.87076 24.21881
C 7.44885 4.30435 24.21893
C 8.690329999999999 5.02115 24.21881
C 8.690329999999999 6.45473 24.21893
C 9.931800000000001 7.17153 24.21881
C 7.44886 0.00357 24.21893
C 8.690329999999999 0.72037 24.21881
C 8.690329999999999 2.15396 24.21893
C 9.931800000000001 2.87076 24.21881
C 9.93181 4.30435 24.21893
C 11.17328 5.02115 24.21881
C 11.17328 6.45473 24.21893
C 12.41475 7.17153 24.21881
B 4.96591 8.597899999999999 27.78069
B 1.24148 2.14674 27.78069
B 2.48296 4.29713 27.78069
B 3.72443 6.44752 27.78069
B 7.44886 8.597899999999999 27.78069
B 3.72443 2.14674 27.78069
B 4.96591 4.29713 27.78069
B 6.20738 6.44752 27.78069
B 9.93181 8.597899999999999 27.78069
B 6.20739 2.14674 27.78069
B 7.44886 4.29713 27.78069
B 8.690340000000001 6.44752 27.78069
B 12.41477 8.597899999999999 27.78069
B 8.690340000000001 2.14674 27.78069
B 9.93182 4.29713 27.78069
B 11.17329 6.44752 27.78069
N 1.24148 0.71314 27.78156
N 2.48296 2.86353 27.78156
N 3.72443 5.01391 27.78156
N 4.96591 7.1643 27.78156
N 3.72444 0.71314 27.78156
N 4.96591 2.86353 27.78156
N 6.20739 5.01391 27.78156
N 7.44886 7.1643 27.78156
N 6.20739 0.71314 27.78156
N 7.44886 2.86353 27.78156
N 8.690340000000001 5.01391 27.78156
N 9.93181 7.1643 27.78156
N 8.690340000000001 0.71314 27.78156
N 9.93182 2.86353 27.78156
N 11.17329 5.01391 27.78156
N 12.41477 7.1643 27.78156
