2048
Lattice="28.9196717442 0 0 0 28.9196717442 0 0 0 28.9196717442" Properties=species:S:1:pos:R:3 pbc="T T T" case=zhou_cu_fcc_rc65
Cu 0.0000000000 0.0000000000 0.0000000000
Cu 0.0000000000 1.8074794840 1.8074794840
Cu 1.8074794840 0.0000000000 1.8074794840
Cu 1.8074794840 1.8074794840 0.0000000000
Cu 0.0000000000 0.0000000000 3.6149589680
Cu 0.0000000000 1.8074794840 5.4224384520
Cu 1.8074794840 0.0000000000 5.4224384520
Cu 1.8074794840 1.8074794840 3.6149589680
Cu 0.0000000000 0.0000000000 7.2299179360
Cu 0.0000000000 1.8074794840 9.0373974201
Cu 1.8074794840 0.0000000000 9.0373974201
Cu 1.8074794840 1.8074794840 7.2299179360
Cu 0.0000000000 0.0000000000 10.8448769041
Cu 0.0000000000 1.8074794840 12.6523563881
Cu 1.8074794840 0.0000000000 12.6523563881
Cu 1.8074794840 1.8074794840 10.8448769041
Cu 0.0000000000 0.0000000000 14.4598358721
Cu 0.0000000000 1.8074794840 16.2673153561
Cu 1.8074794840 0.0000000000 16.2673153561
Cu 1.8074794840 1.8074794840 14.4598358721
Cu 0.0000000000 0.0000000000 18.0747948401
Cu 0.0000000000 1.8074794840 19.8822743241
Cu 1.8074794840 0.0000000000 19.8822743241
Cu 1.8074794840 1.8074794840 18.0747948401
Cu 0.0000000000 0.0000000000 21.6897538081
Cu 0.0000000000 1.8074794840 23.4972332921
Cu 1.8074794840 0.0000000000 23.4972332921
Cu 1.8074794840 1.8074794840 21.6897538081
Cu 0.0000000000 0.0000000000 25.3047127762
Cu 0.0000000000 1.8074794840 27.1121922602
Cu 1.8074794840 0.0000000000 27.1121922602
Cu 1.8074794840 1.8074794840 25.3047127762
Cu 0.0000000000 3.6149589680 0.0000000000
Cu 0.0000000000 5.4224384520 1.8074794840
Cu 1.8074794840 3.6149589680 1.8074794840
Cu 1.8074794840 5.4224384520 0.0000000000
Cu 0.0000000000 3.6149589680 3.6149589680
Cu 0.0000000000 5.4224384520 5.4224384520
Cu 1.8074794840 3.6149589680 5.4224384520
Cu 1.8074794840 5.4224384520 3.6149589680
Cu 0.0000000000 3.6149589680 7.2299179360
Cu 0.0000000000 5.4224384520 9.0373974201
Cu 1.8074794840 3.6149589680 9.0373974201
Cu 1.8074794840 5.4224384520 7.2299179360
Cu 0.0000000000 3.6149589680 10.8448769041
Cu 0.0000000000 5.4224384520 12.6523563881
Cu 1.8074794840 3.6149589680 12.6523563881
Cu 1.8074794840 5.4224384520 10.8448769041
Cu 0.0000000000 3.6149589680 14.4598358721
Cu 0.0000000000 5.4224384520 16.2673153561
Cu 1.8074794840 3.6149589680 16.2673153561
Cu 1.8074794840 5.4224384520 14.4598358721
Cu 0.0000000000 3.6149589680 18.0747948401
Cu 0.0000000000 5.4224384520 19.8822743241
Cu 1.8074794840 3.6149589680 19.8822743241
Cu 1.8074794840 5.4224384520 18.0747948401
Cu 0.0000000000 3.6149589680 21.6897538081
Cu 0.0000000000 5.4224384520 23.4972332921
Cu 1.8074794840 3.6149589680 23.4972332921
Cu 1.8074794840 5.4224384520 21.6897538081
Cu 0.0000000000 3.6149589680 25.3047127762
Cu 0.0000000000 5.4224384520 27.1121922602
Cu 1.8074794840 3.6149589680 27.1121922602
Cu 1.8074794840 5.4224384520 25.3047127762
Cu 0.0000000000 7.2299179360 0.0000000000
Cu 0.0000000000 9.0373974201 1.8074794840
Cu 1.8074794840 7.2299179360 1.8074794840
Cu 1.8074794840 9.0373974201 0.0000000000
Cu 0.0000000000 7.2299179360 3.6149589680
Cu 0.0000000000 9.0373974201 5.4224384520
Cu 1.8074794840 7.2299179360 5.4224384520
Cu 1.8074794840 9.0373974201 3.6149589680
Cu 0.0000000000 7.2299179360 7.2299179360
Cu 0.0000000000 9.0373974201 9.0373974201
Cu 1.8074794840 7.2299179360 9.0373974201
Cu 1.8074794840 9.0373974201 7.2299179360
Cu 0.0000000000 7.2299179360 10.8448769041
Cu 0.0000000000 9.0373974201 12.6523563881
Cu 1.8074794840 7.2299179360 12.6523563881
Cu 1.8074794840 9.0373974201 10.8448769041
Cu 0.0000000000 7.2299179360 14.4598358721
Cu 0.0000000000 9.0373974201 16.2673153561
Cu 1.8074794840 7.2299179360 16.2673153561
Cu 1.8074794840 9.0373974201 14.4598358721
Cu 0.0000000000 7.2299179360 18.0747948401
Cu 0.0000000000 9.0373974201 19.8822743241
Cu 1.8074794840 7.2299179360 19.8822743241
Cu 1.8074794840 9.0373974201 18.0747948401
Cu 0.0000000000 7.2299179360 21.6897538081
Cu 0.0000000000 9.0373974201 23.4972332921
Cu 1.8074794840 7.2299179360 23.4972332921
Cu 1.8074794840 9.0373974201 21.6897538081
Cu 0.0000000000 7.2299179360 25.3047127762
Cu 0.0000000000 9.0373974201 27.1121922602
Cu 1.8074794840 7.2299179360 27.1121922602
Cu 1.8074794840 9.0373974201 25.3047127762
Cu 0.0000000000 10.8448769041 0.0000000000
Cu 0.0000000000 12.6523563881 1.8074794840
Cu 1.8074794840 10.8448769041 1.8074794840
Cu 1.8074794840 12.6523563881 0.0000000000
Cu 0.0000000000 10.8448769041 3.6149589680
Cu 0.0000000000 12.6523563881 5.4224384520
Cu 1.8074794840 10.8448769041 5.4224384520
Cu 1.8074794840 12.6523563881 3.6149589680
Cu 0.0000000000 10.8448769041 7.2299179360
Cu 0.0000000000 12.6523563881 9.0373974201
Cu 1.8074794840 10.8448769041 9.0373974201
Cu 1.8074794840 12.6523563881 7.2299179360
Cu 0.0000000000 10.8448769041 10.8448769041
Cu 0.0000000000 12.6523563881 12.6523563881
Cu 1.8074794840 10.8448769041 12.6523563881
Cu 1.8074794840 12.6523563881 10.8448769041
Cu 0.0000000000 10.8448769041 14.4598358721
Cu 0.0000000000 12.6523563881 16.2673153561
Cu 1.8074794840 10.8448769041 16.2673153561
Cu 1.8074794840 12.6523563881 14.4598358721
Cu 0.0000000000 10.8448769041 18.0747948401
Cu 0.0000000000 12.6523563881 19.8822743241
Cu 1.8074794840 10.8448769041 19.8822743241
Cu 1.8074794840 12.6523563881 18.0747948401
Cu 0.0000000000 10.8448769041 21.6897538081
Cu 0.0000000000 12.6523563881 23.4972332921
Cu 1.8074794840 10.8448769041 23.4972332921
Cu 1.8074794840 12.6523563881 21.6897538081
Cu 0.0000000000 10.8448769041 25.3047127762
Cu 0.0000000000 12.6523563881 27.1121922602
Cu 1.8074794840 10.8448769041 27.1121922602
Cu 1.8074794840 12.6523563881 25.3047127762
Cu 0.0000000000 14.4598358721 0.0000000000
Cu 0.0000000000 16.2673153561 1.8074794840
Cu 1.8074794840 14.4598358721 1.8074794840
Cu 1.8074794840 16.2673153561 0.0000000000
Cu 0.0000000000 14.4598358721 3.6149589680
Cu 0.0000000000 16.2673153561 5.4224384520
Cu 1.8074794840 14.4598358721 5.4224384520
Cu 1.8074794840 16.2673153561 3.6149589680
Cu 0.0000000000 14.4598358721 7.2299179360
Cu 0.0000000000 16.2673153561 9.0373974201
Cu 1.8074794840 14.4598358721 9.0373974201
Cu 1.8074794840 16.2673153561 7.2299179360
Cu 0.0000000000 14.4598358721 10.8448769041
Cu 0.0000000000 16.2673153561 12.6523563881
Cu 1.8074794840 14.4598358721 12.6523563881
Cu 1.8074794840 16.2673153561 10.8448769041
Cu 0.0000000000 14.4598358721 14.4598358721
Cu 0.0000000000 16.2673153561 16.2673153561
Cu 1.8074794840 14.4598358721 16.2673153561
Cu 1.8074794840 16.2673153561 14.4598358721
Cu 0.0000000000 14.4598358721 18.0747948401
Cu 0.0000000000 16.2673153561 19.8822743241
Cu 1.8074794840 14.4598358721 19.8822743241
Cu 1.8074794840 16.2673153561 18.0747948401
Cu 0.0000000000 14.4598358721 21.6897538081
Cu 0.0000000000 16.2673153561 23.4972332921
Cu 1.8074794840 14.4598358721 23.4972332921
Cu 1.8074794840 16.2673153561 21.6897538081
Cu 0.0000000000 14.4598358721 25.3047127762
Cu 0.0000000000 16.2673153561 27.1121922602
Cu 1.8074794840 14.4598358721 27.1121922602
Cu 1.8074794840 16.2673153561 25.3047127762
Cu 0.0000000000 18.0747948401 0.0000000000
Cu 0.0000000000 19.8822743241 1.8074794840
Cu 1.8074794840 18.0747948401 1.8074794840
Cu 1.8074794840 19.8822743241 0.0000000000
Cu 0.0000000000 18.0747948401 3.6149589680
Cu 0.0000000000 19.8822743241 5.4224384520
Cu 1.8074794840 18.0747948401 5.4224384520
Cu 1.8074794840 19.8822743241 3.6149589680
Cu 0.0000000000 18.0747948401 7.2299179360
Cu 0.0000000000 19.8822743241 9.0373974201
Cu 1.8074794840 18.0747948401 9.0373974201
Cu 1.8074794840 19.8822743241 7.2299179360
Cu 0.0000000000 18.0747948401 10.8448769041
Cu 0.0000000000 19.8822743241 12.6523563881
Cu 1.8074794840 18.0747948401 12.6523563881
Cu 1.8074794840 19.8822743241 10.8448769041
Cu 0.0000000000 18.0747948401 14.4598358721
Cu 0.0000000000 19.8822743241 16.2673153561
Cu 1.8074794840 18.0747948401 16.2673153561
Cu 1.8074794840 19.8822743241 14.4598358721
Cu 0.0000000000 18.0747948401 18.0747948401
Cu 0.0000000000 19.8822743241 19.8822743241
Cu 1.8074794840 18.0747948401 19.8822743241
Cu 1.8074794840 19.8822743241 18.0747948401
Cu 0.0000000000 18.0747948401 21.6897538081
Cu 0.0000000000 19.8822743241 23.4972332921
Cu 1.8074794840 18.0747948401 23.4972332921
Cu 1.8074794840 19.8822743241 21.6897538081
Cu 0.0000000000 18.0747948401 25.3047127762
Cu 0.0000000000 19.8822743241 27.1121922602
Cu 1.8074794840 18.0747948401 27.1121922602
Cu 1.8074794840 19.8822743241 25.3047127762
Cu 0.0000000000 21.6897538081 0.0000000000
Cu 0.0000000000 23.4972332921 1.8074794840
Cu 1.8074794840 21.6897538081 1.8074794840
Cu 1.8074794840 23.4972332921 0.0000000000
Cu 0.0000000000 21.6897538081 3.6149589680
Cu 0.0000000000 23.4972332921 5.4224384520
Cu 1.8074794840 21.6897538081 5.4224384520
Cu 1.8074794840 23.4972332921 3.6149589680
Cu 0.0000000000 21.6897538081 7.2299179360
Cu 0.0000000000 23.4972332921 9.0373974201
Cu 1.8074794840 21.6897538081 9.0373974201
Cu 1.8074794840 23.4972332921 7.2299179360
Cu 0.0000000000 21.6897538081 10.8448769041
Cu 0.0000000000 23.4972332921 12.6523563881
Cu 1.8074794840 21.6897538081 12.6523563881
Cu 1.8074794840 23.4972332921 10.8448769041
Cu 0.0000000000 21.6897538081 14.4598358721
Cu 0.0000000000 23.4972332921 16.2673153561
Cu 1.8074794840 21.6897538081 16.2673153561
Cu 1.8074794840 23.4972332921 14.4598358721
Cu 0.0000000000 21.6897538081 18.0747948401
Cu 0.0000000000 23.4972332921 19.8822743241
Cu 1.8074794840 21.6897538081 19.8822743241
Cu 1.8074794840 23.4972332921 18.0747948401
Cu 0.0000000000 21.6897538081 21.6897538081
Cu 0.0000000000 23.4972332921 23.4972332921
Cu 1.8074794840 21.6897538081 23.4972332921
Cu 1.8074794840 23.4972332921 21.6897538081
Cu 0.0000000000 21.6897538081 25.3047127762
Cu 0.0000000000 23.4972332921 27.1121922602
Cu 1.8074794840 21.6897538081 27.1121922602
Cu 1.8074794840 23.4972332921 25.3047127762
Cu 0.0000000000 25.3047127762 0.0000000000
Cu 0.0000000000 27.1121922602 1.8074794840
Cu 1.8074794840 25.3047127762 1.8074794840
Cu 1.8074794840 27.1121922602 0.0000000000
Cu 0.0000000000 25.3047127762 3.6149589680
Cu 0.0000000000 27.1121922602 5.4224384520
Cu 1.8074794840 25.3047127762 5.4224384520
Cu 1.8074794840 27.1121922602 3.6149589680
Cu 0.0000000000 25.3047127762 7.2299179360
Cu 0.0000000000 27.1121922602 9.0373974201
Cu 1.8074794840 25.3047127762 9.0373974201
Cu 1.8074794840 27.1121922602 7.2299179360
Cu 0.0000000000 25.3047127762 10.8448769041
Cu 0.0000000000 27.1121922602 12.6523563881
Cu 1.8074794840 25.3047127762 12.6523563881
Cu 1.8074794840 27.1121922602 10.8448769041
Cu 0.0000000000 25.3047127762 14.4598358721
Cu 0.0000000000 27.1121922602 16.2673153561
Cu 1.8074794840 25.3047127762 16.2673153561
Cu 1.8074794840 27.1121922602 14.4598358721
Cu 0.0000000000 25.3047127762 18.0747948401
Cu 0.0000000000 27.1121922602 19.8822743241
Cu 1.8074794840 25.3047127762 19.8822743241
Cu 1.8074794840 27.1121922602 18.0747948401
Cu 0.0000000000 25.3047127762 21.6897538081
Cu 0.0000000000 27.1121922602 23.4972332921
Cu 1.8074794840 25.3047127762 23.4972332921
Cu 1.8074794840 27.1121922602 21.6897538081
Cu 0.0000000000 25.3047127762 25.3047127762
Cu 0.0000000000 27.1121922602 27.1121922602
Cu 1.8074794840 25.3047127762 27.1121922602
Cu 1.8074794840 27.1121922602 25.3047127762
Cu 3.6149589680 0.0000000000 0.0000000000
Cu 3.6149589680 1.8074794840 1.8074794840
Cu 5.4224384520 0.0000000000 1.8074794840
Cu 5.4224384520 1.8074794840 0.0000000000
Cu 3.6149589680 0.0000000000 3.6149589680
Cu 3.6149589680 1.8074794840 5.4224384520
Cu 5.4224384520 0.0000000000 5.4224384520
Cu 5.4224384520 1.8074794840 3.6149589680
Cu 3.6149589680 0.0000000000 7.2299179360
Cu 3.6149589680 1.8074794840 9.0373974201
Cu 5.4224384520 0.0000000000 9.0373974201
Cu 5.4224384520 1.8074794840 7.2299179360
Cu 3.6149589680 0.0000000000 10.8448769041
Cu 3.6149589680 1.8074794840 12.6523563881
Cu 5.4224384520 0.0000000000 12.6523563881
Cu 5.4224384520 1.8074794840 10.8448769041
Cu 3.6149589680 0.0000000000 14.4598358721
Cu 3.6149589680 1.8074794840 16.2673153561
Cu 5.4224384520 0.0000000000 16.2673153561
Cu 5.4224384520 1.8074794840 14.4598358721
Cu 3.6149589680 0.0000000000 18.0747948401
Cu 3.6149589680 1.8074794840 19.8822743241
Cu 5.4224384520 0.0000000000 19.8822743241
Cu 5.4224384520 1.8074794840 18.0747948401
Cu 3.6149589680 0.0000000000 21.6897538081
Cu 3.6149589680 1.8074794840 23.4972332921
Cu 5.4224384520 0.0000000000 23.4972332921
Cu 5.4224384520 1.8074794840 21.6897538081
Cu 3.6149589680 0.0000000000 25.3047127762
Cu 3.6149589680 1.8074794840 27.1121922602
Cu 5.4224384520 0.0000000000 27.1121922602
Cu 5.4224384520 1.8074794840 25.3047127762
Cu 3.6149589680 3.6149589680 0.0000000000
Cu 3.6149589680 5.4224384520 1.8074794840
Cu 5.4224384520 3.6149589680 1.8074794840
Cu 5.4224384520 5.4224384520 0.0000000000
Cu 3.6149589680 3.6149589680 3.6149589680
Cu 3.6149589680 5.4224384520 5.4224384520
Cu 5.4224384520 3.6149589680 5.4224384520
Cu 5.4224384520 5.4224384520 3.6149589680
Cu 3.6149589680 3.6149589680 7.2299179360
Cu 3.6149589680 5.4224384520 9.0373974201
Cu 5.4224384520 3.6149589680 9.0373974201
Cu 5.4224384520 5.4224384520 7.2299179360
Cu 3.6149589680 3.6149589680 10.8448769041
Cu 3.6149589680 5.4224384520 12.6523563881
Cu 5.4224384520 3.6149589680 12.6523563881
Cu 5.4224384520 5.4224384520 10.8448769041
Cu 3.6149589680 3.6149589680 14.4598358721
Cu 3.6149589680 5.4224384520 16.2673153561
Cu 5.4224384520 3.6149589680 16.2673153561
Cu 5.4224384520 5.4224384520 14.4598358721
Cu 3.6149589680 3.6149589680 18.0747948401
Cu 3.6149589680 5.4224384520 19.8822743241
Cu 5.4224384520 3.6149589680 19.8822743241
Cu 5.4224384520 5.4224384520 18.0747948401
Cu 3.6149589680 3.6149589680 21.6897538081
Cu 3.6149589680 5.4224384520 23.4972332921
Cu 5.4224384520 3.6149589680 23.4972332921
Cu 5.4224384520 5.4224384520 21.6897538081
Cu 3.6149589680 3.6149589680 25.3047127762
Cu 3.6149589680 5.4224384520 27.1121922602
Cu 5.4224384520 3.6149589680 27.1121922602
Cu 5.4224384520 5.4224384520 25.3047127762
Cu 3.6149589680 7.2299179360 0.0000000000
Cu 3.6149589680 9.0373974201 1.8074794840
Cu 5.4224384520 7.2299179360 1.8074794840
Cu 5.4224384520 9.0373974201 0.0000000000
Cu 3.6149589680 7.2299179360 3.6149589680
Cu 3.6149589680 9.0373974201 5.4224384520
Cu 5.4224384520 7.2299179360 5.4224384520
Cu 5.4224384520 9.0373974201 3.6149589680
Cu 3.6149589680 7.2299179360 7.2299179360
Cu 3.6149589680 9.0373974201 9.0373974201
Cu 5.4224384520 7.2299179360 9.0373974201
Cu 5.4224384520 9.0373974201 7.2299179360
Cu 3.6149589680 7.2299179360 10.8448769041
Cu 3.6149589680 9.0373974201 12.6523563881
Cu 5.4224384520 7.2299179360 12.6523563881
Cu 5.4224384520 9.0373974201 10.8448769041
Cu 3.6149589680 7.2299179360 14.4598358721
Cu 3.6149589680 9.0373974201 16.2673153561
Cu 5.4224384520 7.2299179360 16.2673153561
Cu 5.4224384520 9.0373974201 14.4598358721
Cu 3.6149589680 7.2299179360 18.0747948401
Cu 3.6149589680 9.0373974201 19.8822743241
Cu 5.4224384520 7.2299179360 19.8822743241
Cu 5.4224384520 9.0373974201 18.0747948401
Cu 3.6149589680 7.2299179360 21.6897538081
Cu 3.6149589680 9.0373974201 23.4972332921
Cu 5.4224384520 7.2299179360 23.4972332921
Cu 5.4224384520 9.0373974201 21.6897538081
Cu 3.6149589680 7.2299179360 25.3047127762
Cu 3.6149589680 9.0373974201 27.1121922602
Cu 5.4224384520 7.2299179360 27.1121922602
Cu 5.4224384520 9.0373974201 25.3047127762
Cu 3.6149589680 10.8448769041 0.0000000000
Cu 3.6149589680 12.6523563881 1.8074794840
Cu 5.4224384520 10.8448769041 1.8074794840
Cu 5.4224384520 12.6523563881 0.0000000000
Cu 3.6149589680 10.8448769041 3.6149589680
Cu 3.6149589680 12.6523563881 5.4224384520
Cu 5.4224384520 10.8448769041 5.4224384520
Cu 5.4224384520 12.6523563881 3.6149589680
Cu 3.6149589680 10.8448769041 7.2299179360
Cu 3.6149589680 12.6523563881 9.0373974201
Cu 5.4224384520 10.8448769041 9.0373974201
Cu 5.4224384520 12.6523563881 7.2299179360
Cu 3.6149589680 10.8448769041 10.8448769041
Cu 3.6149589680 12.6523563881 12.6523563881
Cu 5.4224384520 10.8448769041 12.6523563881
Cu 5.4224384520 12.6523563881 10.8448769041
Cu 3.6149589680 10.8448769041 14.4598358721
Cu 3.6149589680 12.6523563881 16.2673153561
Cu 5.4224384520 10.8448769041 16.2673153561
Cu 5.4224384520 12.6523563881 14.4598358721
Cu 3.6149589680 10.8448769041 18.0747948401
Cu 3.6149589680 12.6523563881 19.8822743241
Cu 5.4224384520 10.8448769041 19.8822743241
Cu 5.4224384520 12.6523563881 18.0747948401
Cu 3.6149589680 10.8448769041 21.6897538081
Cu 3.6149589680 12.6523563881 23.4972332921
Cu 5.4224384520 10.8448769041 23.4972332921
Cu 5.4224384520 12.6523563881 21.6897538081
Cu 3.6149589680 10.8448769041 25.3047127762
Cu 3.6149589680 12.6523563881 27.1121922602
Cu 5.4224384520 10.8448769041 27.1121922602
Cu 5.4224384520 12.6523563881 25.3047127762
Cu 3.6149589680 14.4598358721 0.0000000000
Cu 3.6149589680 16.2673153561 1.8074794840
Cu 5.4224384520 14.4598358721 1.8074794840
Cu 5.4224384520 16.2673153561 0.0000000000
Cu 3.6149589680 14.4598358721 3.6149589680
Cu 3.6149589680 16.2673153561 5.4224384520
Cu 5.4224384520 14.4598358721 5.4224384520
Cu 5.4224384520 16.2673153561 3.6149589680
Cu 3.6149589680 14.4598358721 7.2299179360
Cu 3.6149589680 16.2673153561 9.0373974201
Cu 5.4224384520 14.4598358721 9.0373974201
Cu 5.4224384520 16.2673153561 7.2299179360
Cu 3.6149589680 14.4598358721 10.8448769041
Cu 3.6149589680 16.2673153561 12.6523563881
Cu 5.4224384520 14.4598358721 12.6523563881
Cu 5.4224384520 16.2673153561 10.8448769041
Cu 3.6149589680 14.4598358721 14.4598358721
Cu 3.6149589680 16.2673153561 16.2673153561
Cu 5.4224384520 14.4598358721 16.2673153561
Cu 5.4224384520 16.2673153561 14.4598358721
Cu 3.6149589680 14.4598358721 18.0747948401
Cu 3.6149589680 16.2673153561 19.8822743241
Cu 5.4224384520 14.4598358721 19.8822743241
Cu 5.4224384520 16.2673153561 18.0747948401
Cu 3.6149589680 14.4598358721 21.6897538081
Cu 3.6149589680 16.2673153561 23.4972332921
Cu 5.4224384520 14.4598358721 23.4972332921
Cu 5.4224384520 16.2673153561 21.6897538081
Cu 3.6149589680 14.4598358721 25.3047127762
Cu 3.6149589680 16.2673153561 27.1121922602
Cu 5.4224384520 14.4598358721 27.1121922602
Cu 5.4224384520 16.2673153561 25.3047127762
Cu 3.6149589680 18.0747948401 0.0000000000
Cu 3.6149589680 19.8822743241 1.8074794840
Cu 5.4224384520 18.0747948401 1.8074794840
Cu 5.4224384520 19.8822743241 0.0000000000
Cu 3.6149589680 18.0747948401 3.6149589680
Cu 3.6149589680 19.8822743241 5.4224384520
Cu 5.4224384520 18.0747948401 5.4224384520
Cu 5.4224384520 19.8822743241 3.6149589680
Cu 3.6149589680 18.0747948401 7.2299179360
Cu 3.6149589680 19.8822743241 9.0373974201
Cu 5.4224384520 18.0747948401 9.0373974201
Cu 5.4224384520 19.8822743241 7.2299179360
Cu 3.6149589680 18.0747948401 10.8448769041
Cu 3.6149589680 19.8822743241 12.6523563881
Cu 5.4224384520 18.0747948401 12.6523563881
Cu 5.4224384520 19.8822743241 10.8448769041
Cu 3.6149589680 18.0747948401 14.4598358721
Cu 3.6149589680 19.8822743241 16.2673153561
Cu 5.4224384520 18.0747948401 16.2673153561
Cu 5.4224384520 19.8822743241 14.4598358721
Cu 3.6149589680 18.0747948401 18.0747948401
Cu 3.6149589680 19.8822743241 19.8822743241
Cu 5.4224384520 18.0747948401 19.8822743241
Cu 5.4224384520 19.8822743241 18.0747948401
Cu 3.6149589680 18.0747948401 21.6897538081
Cu 3.6149589680 19.8822743241 23.4972332921
Cu 5.4224384520 18.0747948401 23.4972332921
Cu 5.4224384520 19.8822743241 21.6897538081
Cu 3.6149589680 18.0747948401 25.3047127762
Cu 3.6149589680 19.8822743241 27.1121922602
Cu 5.4224384520 18.0747948401 27.1121922602
Cu 5.4224384520 19.8822743241 25.3047127762
Cu 3.6149589680 21.6897538081 0.0000000000
Cu 3.6149589680 23.4972332921 1.8074794840
Cu 5.4224384520 21.6897538081 1.8074794840
Cu 5.4224384520 23.4972332921 0.0000000000
Cu 3.6149589680 21.6897538081 3.6149589680
Cu 3.6149589680 23.4972332921 5.4224384520
Cu 5.4224384520 21.6897538081 5.4224384520
Cu 5.4224384520 23.4972332921 3.6149589680
Cu 3.6149589680 21.6897538081 7.2299179360
Cu 3.6149589680 23.4972332921 9.0373974201
Cu 5.4224384520 21.6897538081 9.0373974201
Cu 5.4224384520 23.4972332921 7.2299179360
Cu 3.6149589680 21.6897538081 10.8448769041
Cu 3.6149589680 23.4972332921 12.6523563881
Cu 5.4224384520 21.6897538081 12.6523563881
Cu 5.4224384520 23.4972332921 10.8448769041
Cu 3.6149589680 21.6897538081 14.4598358721
Cu 3.6149589680 23.4972332921 16.2673153561
Cu 5.4224384520 21.6897538081 16.2673153561
Cu 5.4224384520 23.4972332921 14.4598358721
Cu 3.6149589680 21.6897538081 18.0747948401
Cu 3.6149589680 23.4972332921 19.8822743241
Cu 5.4224384520 21.6897538081 19.8822743241
Cu 5.4224384520 23.4972332921 18.0747948401
Cu 3.6149589680 21.6897538081 21.6897538081
Cu 3.6149589680 23.4972332921 23.4972332921
Cu 5.4224384520 21.6897538081 23.4972332921
Cu 5.4224384520 23.4972332921 21.6897538081
Cu 3.6149589680 21.6897538081 25.3047127762
Cu 3.6149589680 23.4972332921 27.1121922602
Cu 5.4224384520 21.6897538081 27.1121922602
Cu 5.4224384520 23.4972332921 25.3047127762
Cu 3.6149589680 25.3047127762 0.0000000000
Cu 3.6149589680 27.1121922602 1.8074794840
Cu 5.4224384520 25.3047127762 1.8074794840
Cu 5.4224384520 27.1121922602 0.0000000000
Cu 3.6149589680 25.3047127762 3.6149589680
Cu 3.6149589680 27.1121922602 5.4224384520
Cu 5.4224384520 25.3047127762 5.4224384520
Cu 5.4224384520 27.1121922602 3.6149589680
Cu 3.6149589680 25.3047127762 7.2299179360
Cu 3.6149589680 27.1121922602 9.0373974201
Cu 5.4224384520 25.3047127762 9.0373974201
Cu 5.4224384520 27.1121922602 7.2299179360
Cu 3.6149589680 25.3047127762 10.8448769041
Cu 3.6149589680 27.1121922602 12.6523563881
Cu 5.4224384520 25.3047127762 12.6523563881
Cu 5.4224384520 27.1121922602 10.8448769041
Cu 3.6149589680 25.3047127762 14.4598358721
Cu 3.6149589680 27.1121922602 16.2673153561
Cu 5.4224384520 25.3047127762 16.2673153561
Cu 5.4224384520 27.1121922602 14.4598358721
Cu 3.6149589680 25.3047127762 18.0747948401
Cu 3.6149589680 27.1121922602 19.8822743241
Cu 5.4224384520 25.3047127762 19.8822743241
Cu 5.4224384520 27.1121922602 18.0747948401
Cu 3.6149589680 25.3047127762 21.6897538081
Cu 3.6149589680 27.1121922602 23.4972332921
Cu 5.4224384520 25.3047127762 23.4972332921
Cu 5.4224384520 27.1121922602 21.6897538081
Cu 3.6149589680 25.3047127762 25.3047127762
Cu 3.6149589680 27.1121922602 27.1121922602
Cu 5.4224384520 25.3047127762 27.1121922602
Cu 5.4224384520 27.1121922602 25.3047127762
Cu 7.2299179360 0.0000000000 0.0000000000
Cu 7.2299179360 1.8074794840 1.8074794840
Cu 9.0373974201 0.0000000000 1.8074794840
Cu 9.0373974201 1.8074794840 0.0000000000
Cu 7.2299179360 0.0000000000 3.6149589680
Cu 7.2299179360 1.8074794840 5.4224384520
Cu 9.0373974201 0.0000000000 5.4224384520
Cu 9.0373974201 1.8074794840 3.6149589680
Cu 7.2299179360 0.0000000000 7.2299179360
Cu 7.2299179360 1.8074794840 9.0373974201
Cu 9.0373974201 0.0000000000 9.0373974201
Cu 9.0373974201 1.8074794840 7.2299179360
Cu 7.2299179360 0.0000000000 10.8448769041
Cu 7.2299179360 1.8074794840 12.6523563881
Cu 9.0373974201 0.0000000000 12.6523563881
Cu 9.0373974201 1.8074794840 10.8448769041
Cu 7.2299179360 0.0000000000 14.4598358721
Cu 7.2299179360 1.8074794840 16.2673153561
Cu 9.0373974201 0.0000000000 16.2673153561
Cu 9.0373974201 1.8074794840 14.4598358721
Cu 7.2299179360 0.0000000000 18.0747948401
Cu 7.2299179360 1.8074794840 19.8822743241
Cu 9.0373974201 0.0000000000 19.8822743241
Cu 9.0373974201 1.8074794840 18.0747948401
Cu 7.2299179360 0.0000000000 21.6897538081
Cu 7.2299179360 1.8074794840 23.4972332921
Cu 9.0373974201 0.0000000000 23.4972332921
Cu 9.0373974201 1.8074794840 21.6897538081
Cu 7.2299179360 0.0000000000 25.3047127762
Cu 7.2299179360 1.8074794840 27.1121922602
Cu 9.0373974201 0.0000000000 27.1121922602
Cu 9.0373974201 1.8074794840 25.3047127762
Cu 7.2299179360 3.6149589680 0.0000000000
Cu 7.2299179360 5.4224384520 1.8074794840
Cu 9.0373974201 3.6149589680 1.8074794840
Cu 9.0373974201 5.4224384520 0.0000000000
Cu 7.2299179360 3.6149589680 3.6149589680
Cu 7.2299179360 5.4224384520 5.4224384520
Cu 9.0373974201 3.6149589680 5.4224384520
Cu 9.0373974201 5.4224384520 3.6149589680
Cu 7.2299179360 3.6149589680 7.2299179360
Cu 7.2299179360 5.4224384520 9.0373974201
Cu 9.0373974201 3.6149589680 9.0373974201
Cu 9.0373974201 5.4224384520 7.2299179360
Cu 7.2299179360 3.6149589680 10.8448769041
Cu 7.2299179360 5.4224384520 12.6523563881
Cu 9.0373974201 3.6149589680 12.6523563881
Cu 9.0373974201 5.4224384520 10.8448769041
Cu 7.2299179360 3.6149589680 14.4598358721
Cu 7.2299179360 5.4224384520 16.2673153561
Cu 9.0373974201 3.6149589680 16.2673153561
Cu 9.0373974201 5.4224384520 14.4598358721
Cu 7.2299179360 3.6149589680 18.0747948401
Cu 7.2299179360 5.4224384520 19.8822743241
Cu 9.0373974201 3.6149589680 19.8822743241
Cu 9.0373974201 5.4224384520 18.0747948401
Cu 7.2299179360 3.6149589680 21.6897538081
Cu 7.2299179360 5.4224384520 23.4972332921
Cu 9.0373974201 3.6149589680 23.4972332921
Cu 9.0373974201 5.4224384520 21.6897538081
Cu 7.2299179360 3.6149589680 25.3047127762
Cu 7.2299179360 5.4224384520 27.1121922602
Cu 9.0373974201 3.6149589680 27.1121922602
Cu 9.0373974201 5.4224384520 25.3047127762
Cu 7.2299179360 7.2299179360 0.0000000000
Cu 7.2299179360 9.0373974201 1.8074794840
Cu 9.0373974201 7.2299179360 1.8074794840
Cu 9.0373974201 9.0373974201 0.0000000000
Cu 7.2299179360 7.2299179360 3.6149589680
Cu 7.2299179360 9.0373974201 5.4224384520
Cu 9.0373974201 7.2299179360 5.4224384520
Cu 9.0373974201 9.0373974201 3.6149589680
Cu 7.2299179360 7.2299179360 7.2299179360
Cu 7.2299179360 9.0373974201 9.0373974201
Cu 9.0373974201 7.2299179360 9.0373974201
Cu 9.0373974201 9.0373974201 7.2299179360
Cu 7.2299179360 7.2299179360 10.8448769041
Cu 7.2299179360 9.0373974201 12.6523563881
Cu 9.0373974201 7.2299179360 12.6523563881
Cu 9.0373974201 9.0373974201 10.8448769041
Cu 7.2299179360 7.2299179360 14.4598358721
Cu 7.2299179360 9.0373974201 16.2673153561
Cu 9.0373974201 7.2299179360 16.2673153561
Cu 9.0373974201 9.0373974201 14.4598358721
Cu 7.2299179360 7.2299179360 18.0747948401
Cu 7.2299179360 9.0373974201 19.8822743241
Cu 9.0373974201 7.2299179360 19.8822743241
Cu 9.0373974201 9.0373974201 18.0747948401
Cu 7.2299179360 7.2299179360 21.6897538081
Cu 7.2299179360 9.0373974201 23.4972332921
Cu 9.0373974201 7.2299179360 23.4972332921
Cu 9.0373974201 9.0373974201 21.6897538081
Cu 7.2299179360 7.2299179360 25.3047127762
Cu 7.2299179360 9.0373974201 27.1121922602
Cu 9.0373974201 7.2299179360 27.1121922602
Cu 9.0373974201 9.0373974201 25.3047127762
Cu 7.2299179360 10.8448769041 0.0000000000
Cu 7.2299179360 12.6523563881 1.8074794840
Cu 9.0373974201 10.8448769041 1.8074794840
Cu 9.0373974201 12.6523563881 0.0000000000
Cu 7.2299179360 10.8448769041 3.6149589680
Cu 7.2299179360 12.6523563881 5.4224384520
Cu 9.0373974201 10.8448769041 5.4224384520
Cu 9.0373974201 12.6523563881 3.6149589680
Cu 7.2299179360 10.8448769041 7.2299179360
Cu 7.2299179360 12.6523563881 9.0373974201
Cu 9.0373974201 10.8448769041 9.0373974201
Cu 9.0373974201 12.6523563881 7.2299179360
Cu 7.2299179360 10.8448769041 10.8448769041
Cu 7.2299179360 12.6523563881 12.6523563881
Cu 9.0373974201 10.8448769041 12.6523563881
Cu 9.0373974201 12.6523563881 10.8448769041
Cu 7.2299179360 10.8448769041 14.4598358721
Cu 7.2299179360 12.6523563881 16.2673153561
Cu 9.0373974201 10.8448769041 16.2673153561
Cu 9.0373974201 12.6523563881 14.4598358721
Cu 7.2299179360 10.8448769041 18.0747948401
Cu 7.2299179360 12.6523563881 19.8822743241
Cu 9.0373974201 10.8448769041 19.8822743241
Cu 9.0373974201 12.6523563881 18.0747948401
Cu 7.2299179360 10.8448769041 21.6897538081
Cu 7.2299179360 12.6523563881 23.4972332921
Cu 9.0373974201 10.8448769041 23.4972332921
Cu 9.0373974201 12.6523563881 21.6897538081
Cu 7.2299179360 10.8448769041 25.3047127762
Cu 7.2299179360 12.6523563881 27.1121922602
Cu 9.0373974201 10.8448769041 27.1121922602
Cu 9.0373974201 12.6523563881 25.3047127762
Cu 7.2299179360 14.4598358721 0.0000000000
Cu 7.2299179360 16.2673153561 1.8074794840
Cu 9.0373974201 14.4598358721 1.8074794840
Cu 9.0373974201 16.2673153561 0.0000000000
Cu 7.2299179360 14.4598358721 3.6149589680
Cu 7.2299179360 16.2673153561 5.4224384520
Cu 9.0373974201 14.4598358721 5.4224384520
Cu 9.0373974201 16.2673153561 3.6149589680
Cu 7.2299179360 14.4598358721 7.2299179360
Cu 7.2299179360 16.2673153561 9.0373974201
Cu 9.0373974201 14.4598358721 9.0373974201
Cu 9.0373974201 16.2673153561 7.2299179360
Cu 7.2299179360 14.4598358721 10.8448769041
Cu 7.2299179360 16.2673153561 12.6523563881
Cu 9.0373974201 14.4598358721 12.6523563881
Cu 9.0373974201 16.2673153561 10.8448769041
Cu 7.2299179360 14.4598358721 14.4598358721
Cu 7.2299179360 16.2673153561 16.2673153561
Cu 9.0373974201 14.4598358721 16.2673153561
Cu 9.0373974201 16.2673153561 14.4598358721
Cu 7.2299179360 14.4598358721 18.0747948401
Cu 7.2299179360 16.2673153561 19.8822743241
Cu 9.0373974201 14.4598358721 19.8822743241
Cu 9.0373974201 16.2673153561 18.0747948401
Cu 7.2299179360 14.4598358721 21.6897538081
Cu 7.2299179360 16.2673153561 23.4972332921
Cu 9.0373974201 14.4598358721 23.4972332921
Cu 9.0373974201 16.2673153561 21.6897538081
Cu 7.2299179360 14.4598358721 25.3047127762
Cu 7.2299179360 16.2673153561 27.1121922602
Cu 9.0373974201 14.4598358721 27.1121922602
Cu 9.0373974201 16.2673153561 25.3047127762
Cu 7.2299179360 18.0747948401 0.0000000000
Cu 7.2299179360 19.8822743241 1.8074794840
Cu 9.0373974201 18.0747948401 1.8074794840
Cu 9.0373974201 19.8822743241 0.0000000000
Cu 7.2299179360 18.0747948401 3.6149589680
Cu 7.2299179360 19.8822743241 5.4224384520
Cu 9.0373974201 18.0747948401 5.4224384520
Cu 9.0373974201 19.8822743241 3.6149589680
Cu 7.2299179360 18.0747948401 7.2299179360
Cu 7.2299179360 19.8822743241 9.0373974201
Cu 9.0373974201 18.0747948401 9.0373974201
Cu 9.0373974201 19.8822743241 7.2299179360
Cu 7.2299179360 18.0747948401 10.8448769041
Cu 7.2299179360 19.8822743241 12.6523563881
Cu 9.0373974201 18.0747948401 12.6523563881
Cu 9.0373974201 19.8822743241 10.8448769041
Cu 7.2299179360 18.0747948401 14.4598358721
Cu 7.2299179360 19.8822743241 16.2673153561
Cu 9.0373974201 18.0747948401 16.2673153561
Cu 9.0373974201 19.8822743241 14.4598358721
Cu 7.2299179360 18.0747948401 18.0747948401
Cu 7.2299179360 19.8822743241 19.8822743241
Cu 9.0373974201 18.0747948401 19.8822743241
Cu 9.0373974201 19.8822743241 18.0747948401
Cu 7.2299179360 18.0747948401 21.6897538081
Cu 7.2299179360 19.8822743241 23.4972332921
Cu 9.0373974201 18.0747948401 23.4972332921
Cu 9.0373974201 19.8822743241 21.6897538081
Cu 7.2299179360 18.0747948401 25.3047127762
Cu 7.2299179360 19.8822743241 27.1121922602
Cu 9.0373974201 18.0747948401 27.1121922602
Cu 9.0373974201 19.8822743241 25.3047127762
Cu 7.2299179360 21.6897538081 0.0000000000
Cu 7.2299179360 23.4972332921 1.8074794840
Cu 9.0373974201 21.6897538081 1.8074794840
Cu 9.0373974201 23.4972332921 0.0000000000
Cu 7.2299179360 21.6897538081 3.6149589680
Cu 7.2299179360 23.4972332921 5.4224384520
Cu 9.0373974201 21.6897538081 5.4224384520
Cu 9.0373974201 23.4972332921 3.6149589680
Cu 7.2299179360 21.6897538081 7.2299179360
Cu 7.2299179360 23.4972332921 9.0373974201
Cu 9.0373974201 21.6897538081 9.0373974201
Cu 9.0373974201 23.4972332921 7.2299179360
Cu 7.2299179360 21.6897538081 10.8448769041
Cu 7.2299179360 23.4972332921 12.6523563881
Cu 9.0373974201 21.6897538081 12.6523563881
Cu 9.0373974201 23.4972332921 10.8448769041
Cu 7.2299179360 21.6897538081 14.4598358721
Cu 7.2299179360 23.4972332921 16.2673153561
Cu 9.0373974201 21.6897538081 16.2673153561
Cu 9.0373974201 23.4972332921 14.4598358721
Cu 7.2299179360 21.6897538081 18.0747948401
Cu 7.2299179360 23.4972332921 19.8822743241
Cu 9.0373974201 21.6897538081 19.8822743241
Cu 9.0373974201 23.4972332921 18.0747948401
Cu 7.2299179360 21.6897538081 21.6897538081
Cu 7.2299179360 23.4972332921 23.4972332921
Cu 9.0373974201 21.6897538081 23.4972332921
Cu 9.0373974201 23.4972332921 21.6897538081
Cu 7.2299179360 21.6897538081 25.3047127762
Cu 7.2299179360 23.4972332921 27.1121922602
Cu 9.0373974201 21.6897538081 27.1121922602
Cu 9.0373974201 23.4972332921 25.3047127762
Cu 7.2299179360 25.3047127762 0.0000000000
Cu 7.2299179360 27.1121922602 1.8074794840
Cu 9.0373974201 25.3047127762 1.8074794840
Cu 9.0373974201 27.1121922602 0.0000000000
Cu 7.2299179360 25.3047127762 3.6149589680
Cu 7.2299179360 27.1121922602 5.4224384520
Cu 9.0373974201 25.3047127762 5.4224384520
Cu 9.0373974201 27.1121922602 3.6149589680
Cu 7.2299179360 25.3047127762 7.2299179360
Cu 7.2299179360 27.1121922602 9.0373974201
Cu 9.0373974201 25.3047127762 9.0373974201
Cu 9.0373974201 27.1121922602 7.2299179360
Cu 7.2299179360 25.3047127762 10.8448769041
Cu 7.2299179360 27.1121922602 12.6523563881
Cu 9.0373974201 25.3047127762 12.6523563881
Cu 9.0373974201 27.1121922602 10.8448769041
Cu 7.2299179360 25.3047127762 14.4598358721
Cu 7.2299179360 27.1121922602 16.2673153561
Cu 9.0373974201 25.3047127762 16.2673153561
Cu 9.0373974201 27.1121922602 14.4598358721
Cu 7.2299179360 25.3047127762 18.0747948401
Cu 7.2299179360 27.1121922602 19.8822743241
Cu 9.0373974201 25.3047127762 19.8822743241
Cu 9.0373974201 27.1121922602 18.0747948401
Cu 7.2299179360 25.3047127762 21.6897538081
Cu 7.2299179360 27.1121922602 23.4972332921
Cu 9.0373974201 25.3047127762 23.4972332921
Cu 9.0373974201 27.1121922602 21.6897538081
Cu 7.2299179360 25.3047127762 25.3047127762
Cu 7.2299179360 27.1121922602 27.1121922602
Cu 9.0373974201 25.3047127762 27.1121922602
Cu 9.0373974201 27.1121922602 25.3047127762
Cu 10.8448769041 0.0000000000 0.0000000000
Cu 10.8448769041 1.8074794840 1.8074794840
Cu 12.6523563881 0.0000000000 1.8074794840
Cu 12.6523563881 1.8074794840 0.0000000000
Cu 10.8448769041 0.0000000000 3.6149589680
Cu 10.8448769041 1.8074794840 5.4224384520
Cu 12.6523563881 0.0000000000 5.4224384520
Cu 12.6523563881 1.8074794840 3.6149589680
Cu 10.8448769041 0.0000000000 7.2299179360
Cu 10.8448769041 1.8074794840 9.0373974201
Cu 12.6523563881 0.0000000000 9.0373974201
Cu 12.6523563881 1.8074794840 7.2299179360
Cu 10.8448769041 0.0000000000 10.8448769041
Cu 10.8448769041 1.8074794840 12.6523563881
Cu 12.6523563881 0.0000000000 12.6523563881
Cu 12.6523563881 1.8074794840 10.8448769041
Cu 10.8448769041 0.0000000000 14.4598358721
Cu 10.8448769041 1.8074794840 16.2673153561
Cu 12.6523563881 0.0000000000 16.2673153561
Cu 12.6523563881 1.8074794840 14.4598358721
Cu 10.8448769041 0.0000000000 18.0747948401
Cu 10.8448769041 1.8074794840 19.8822743241
Cu 12.6523563881 0.0000000000 19.8822743241
Cu 12.6523563881 1.8074794840 18.0747948401
Cu 10.8448769041 0.0000000000 21.6897538081
Cu 10.8448769041 1.8074794840 23.4972332921
Cu 12.6523563881 0.0000000000 23.4972332921
Cu 12.6523563881 1.8074794840 21.6897538081
Cu 10.8448769041 0.0000000000 25.3047127762
Cu 10.8448769041 1.8074794840 27.1121922602
Cu 12.6523563881 0.0000000000 27.1121922602
Cu 12.6523563881 1.8074794840 25.3047127762
Cu 10.8448769041 3.6149589680 0.0000000000
Cu 10.8448769041 5.4224384520 1.8074794840
Cu 12.6523563881 3.6149589680 1.8074794840
Cu 12.6523563881 5.4224384520 0.0000000000
Cu 10.8448769041 3.6149589680 3.6149589680
Cu 10.8448769041 5.4224384520 5.4224384520
Cu 12.6523563881 3.6149589680 5.4224384520
Cu 12.6523563881 5.4224384520 3.6149589680
Cu 10.8448769041 3.6149589680 7.2299179360
Cu 10.8448769041 5.4224384520 9.0373974201
Cu 12.6523563881 3.6149589680 9.0373974201
Cu 12.6523563881 5.4224384520 7.2299179360
Cu 10.8448769041 3.6149589680 10.8448769041
Cu 10.8448769041 5.4224384520 12.6523563881
Cu 12.6523563881 3.6149589680 12.6523563881
Cu 12.6523563881 5.4224384520 10.8448769041
Cu 10.8448769041 3.6149589680 14.4598358721
Cu 10.8448769041 5.4224384520 16.2673153561
Cu 12.6523563881 3.6149589680 16.2673153561
Cu 12.6523563881 5.4224384520 14.4598358721
Cu 10.8448769041 3.6149589680 18.0747948401
Cu 10.8448769041 5.4224384520 19.8822743241
Cu 12.6523563881 3.6149589680 19.8822743241
Cu 12.6523563881 5.4224384520 18.0747948401
Cu 10.8448769041 3.6149589680 21.6897538081
Cu 10.8448769041 5.4224384520 23.4972332921
Cu 12.6523563881 3.6149589680 23.4972332921
Cu 12.6523563881 5.4224384520 21.6897538081
Cu 10.8448769041 3.6149589680 25.3047127762
Cu 10.8448769041 5.4224384520 27.1121922602
Cu 12.6523563881 3.6149589680 27.1121922602
Cu 12.6523563881 5.4224384520 25.3047127762
Cu 10.8448769041 7.2299179360 0.0000000000
Cu 10.8448769041 9.0373974201 1.8074794840
Cu 12.6523563881 7.2299179360 1.8074794840
Cu 12.6523563881 9.0373974201 0.0000000000
Cu 10.8448769041 7.2299179360 3.6149589680
Cu 10.8448769041 9.0373974201 5.4224384520
Cu 12.6523563881 7.2299179360 5.4224384520
Cu 12.6523563881 9.0373974201 3.6149589680
Cu 10.8448769041 7.2299179360 7.2299179360
Cu 10.8448769041 9.0373974201 9.0373974201
Cu 12.6523563881 7.2299179360 9.0373974201
Cu 12.6523563881 9.0373974201 7.2299179360
Cu 10.8448769041 7.2299179360 10.8448769041
Cu 10.8448769041 9.0373974201 12.6523563881
Cu 12.6523563881 7.2299179360 12.6523563881
Cu 12.6523563881 9.0373974201 10.8448769041
Cu 10.8448769041 7.2299179360 14.4598358721
Cu 10.8448769041 9.0373974201 16.2673153561
Cu 12.6523563881 7.2299179360 16.2673153561
Cu 12.6523563881 9.0373974201 14.4598358721
Cu 10.8448769041 7.2299179360 18.0747948401
Cu 10.8448769041 9.0373974201 19.8822743241
Cu 12.6523563881 7.2299179360 19.8822743241
Cu 12.6523563881 9.0373974201 18.0747948401
Cu 10.8448769041 7.2299179360 21.6897538081
Cu 10.8448769041 9.0373974201 23.4972332921
Cu 12.6523563881 7.2299179360 23.4972332921
Cu 12.6523563881 9.0373974201 21.6897538081
Cu 10.8448769041 7.2299179360 25.3047127762
Cu 10.8448769041 9.0373974201 27.1121922602
Cu 12.6523563881 7.2299179360 27.1121922602
Cu 12.6523563881 9.0373974201 25.3047127762
Cu 10.8448769041 10.8448769041 0.0000000000
Cu 10.8448769041 12.6523563881 1.8074794840
Cu 12.6523563881 10.8448769041 1.8074794840
Cu 12.6523563881 12.6523563881 0.0000000000
Cu 10.8448769041 10.8448769041 3.6149589680
Cu 10.8448769041 12.6523563881 5.4224384520
Cu 12.6523563881 10.8448769041 5.4224384520
Cu 12.6523563881 12.6523563881 3.6149589680
Cu 10.8448769041 10.8448769041 7.2299179360
Cu 10.8448769041 12.6523563881 9.0373974201
Cu 12.6523563881 10.8448769041 9.0373974201
Cu 12.6523563881 12.6523563881 7.2299179360
Cu 10.8448769041 10.8448769041 10.8448769041
Cu 10.8448769041 12.6523563881 12.6523563881
Cu 12.6523563881 10.8448769041 12.6523563881
Cu 12.6523563881 12.6523563881 10.8448769041
Cu 10.8448769041 10.8448769041 14.4598358721
Cu 10.8448769041 12.6523563881 16.2673153561
Cu 12.6523563881 10.8448769041 16.2673153561
Cu 12.6523563881 12.6523563881 14.4598358721
Cu 10.8448769041 10.8448769041 18.0747948401
Cu 10.8448769041 12.6523563881 19.8822743241
Cu 12.6523563881 10.8448769041 19.8822743241
Cu 12.6523563881 12.6523563881 18.0747948401
Cu 10.8448769041 10.8448769041 21.6897538081
Cu 10.8448769041 12.6523563881 23.4972332921
Cu 12.6523563881 10.8448769041 23.4972332921
Cu 12.6523563881 12.6523563881 21.6897538081
Cu 10.8448769041 10.8448769041 25.3047127762
Cu 10.8448769041 12.6523563881 27.1121922602
Cu 12.6523563881 10.8448769041 27.1121922602
Cu 12.6523563881 12.6523563881 25.3047127762
Cu 10.8448769041 14.4598358721 0.0000000000
Cu 10.8448769041 16.2673153561 1.8074794840
Cu 12.6523563881 14.4598358721 1.8074794840
Cu 12.6523563881 16.2673153561 0.0000000000
Cu 10.8448769041 14.4598358721 3.6149589680
Cu 10.8448769041 16.2673153561 5.4224384520
Cu 12.6523563881 14.4598358721 5.4224384520
Cu 12.6523563881 16.2673153561 3.6149589680
Cu 10.8448769041 14.4598358721 7.2299179360
Cu 10.8448769041 16.2673153561 9.0373974201
Cu 12.6523563881 14.4598358721 9.0373974201
Cu 12.6523563881 16.2673153561 7.2299179360
Cu 10.8448769041 14.4598358721 10.8448769041
Cu 10.8448769041 16.2673153561 12.6523563881
Cu 12.6523563881 14.4598358721 12.6523563881
Cu 12.6523563881 16.2673153561 10.8448769041
Cu 10.8448769041 14.4598358721 14.4598358721
Cu 10.8448769041 16.2673153561 16.2673153561
Cu 12.6523563881 14.4598358721 16.2673153561
Cu 12.6523563881 16.2673153561 14.4598358721
Cu 10.8448769041 14.4598358721 18.0747948401
Cu 10.8448769041 16.2673153561 19.8822743241
Cu 12.6523563881 14.4598358721 19.8822743241
Cu 12.6523563881 16.2673153561 18.0747948401
Cu 10.8448769041 14.4598358721 21.6897538081
Cu 10.8448769041 16.2673153561 23.4972332921
Cu 12.6523563881 14.4598358721 23.4972332921
Cu 12.6523563881 16.2673153561 21.6897538081
Cu 10.8448769041 14.4598358721 25.3047127762
Cu 10.8448769041 16.2673153561 27.1121922602
Cu 12.6523563881 14.4598358721 27.1121922602
Cu 12.6523563881 16.2673153561 25.3047127762
Cu 10.8448769041 18.0747948401 0.0000000000
Cu 10.8448769041 19.8822743241 1.8074794840
Cu 12.6523563881 18.0747948401 1.8074794840
Cu 12.6523563881 19.8822743241 0.0000000000
Cu 10.8448769041 18.0747948401 3.6149589680
Cu 10.8448769041 19.8822743241 5.4224384520
Cu 12.6523563881 18.0747948401 5.4224384520
Cu 12.6523563881 19.8822743241 3.6149589680
Cu 10.8448769041 18.0747948401 7.2299179360
Cu 10.8448769041 19.8822743241 9.0373974201
Cu 12.6523563881 18.0747948401 9.0373974201
Cu 12.6523563881 19.8822743241 7.2299179360
Cu 10.8448769041 18.0747948401 10.8448769041
Cu 10.8448769041 19.8822743241 12.6523563881
Cu 12.6523563881 18.0747948401 12.6523563881
Cu 12.6523563881 19.8822743241 10.8448769041
Cu 10.8448769041 18.0747948401 14.4598358721
Cu 10.8448769041 19.8822743241 16.2673153561
Cu 12.6523563881 18.0747948401 16.2673153561
Cu 12.6523563881 19.8822743241 14.4598358721
Cu 10.8448769041 18.0747948401 18.0747948401
Cu 10.8448769041 19.8822743241 19.8822743241
Cu 12.6523563881 18.0747948401 19.8822743241
Cu 12.6523563881 19.8822743241 18.0747948401
Cu 10.8448769041 18.0747948401 21.6897538081
Cu 10.8448769041 19.8822743241 23.4972332921
Cu 12.6523563881 18.0747948401 23.4972332921
Cu 12.6523563881 19.8822743241 21.6897538081
Cu 10.8448769041 18.0747948401 25.3047127762
Cu 10.8448769041 19.8822743241 27.1121922602
Cu 12.6523563881 18.0747948401 27.1121922602
Cu 12.6523563881 19.8822743241 25.3047127762
Cu 10.8448769041 21.6897538081 0.0000000000
Cu 10.8448769041 23.4972332921 1.8074794840
Cu 12.6523563881 21.6897538081 1.8074794840
Cu 12.6523563881 23.4972332921 0.0000000000
Cu 10.8448769041 21.6897538081 3.6149589680
Cu 10.8448769041 23.4972332921 5.4224384520
Cu 12.6523563881 21.6897538081 5.4224384520
Cu 12.6523563881 23.4972332921 3.6149589680
Cu 10.8448769041 21.6897538081 7.2299179360
Cu 10.8448769041 23.4972332921 9.0373974201
Cu 12.6523563881 21.6897538081 9.0373974201
Cu 12.6523563881 23.4972332921 7.2299179360
Cu 10.8448769041 21.6897538081 10.8448769041
Cu 10.8448769041 23.4972332921 12.6523563881
Cu 12.6523563881 21.6897538081 12.6523563881
Cu 12.6523563881 23.4972332921 10.8448769041
Cu 10.8448769041 21.6897538081 14.4598358721
Cu 10.8448769041 23.4972332921 16.2673153561
Cu 12.6523563881 21.6897538081 16.2673153561
Cu 12.6523563881 23.4972332921 14.4598358721
Cu 10.8448769041 21.6897538081 18.0747948401
Cu 10.8448769041 23.4972332921 19.8822743241
Cu 12.6523563881 21.6897538081 19.8822743241
Cu 12.6523563881 23.4972332921 18.0747948401
Cu 10.8448769041 21.6897538081 21.6897538081
Cu 10.8448769041 23.4972332921 23.4972332921
Cu 12.6523563881 21.6897538081 23.4972332921
Cu 12.6523563881 23.4972332921 21.6897538081
Cu 10.8448769041 21.6897538081 25.3047127762
Cu 10.8448769041 23.4972332921 27.1121922602
Cu 12.6523563881 21.6897538081 27.1121922602
Cu 12.6523563881 23.4972332921 25.3047127762
Cu 10.8448769041 25.3047127762 0.0000000000
Cu 10.8448769041 27.1121922602 1.8074794840
Cu 12.6523563881 25.3047127762 1.8074794840
Cu 12.6523563881 27.1121922602 0.0000000000
Cu 10.8448769041 25.3047127762 3.6149589680
Cu 10.8448769041 27.1121922602 5.4224384520
Cu 12.6523563881 25.3047127762 5.4224384520
Cu 12.6523563881 27.1121922602 3.6149589680
Cu 10.8448769041 25.3047127762 7.2299179360
Cu 10.8448769041 27.1121922602 9.0373974201
Cu 12.6523563881 25.3047127762 9.0373974201
Cu 12.6523563881 27.1121922602 7.2299179360
Cu 10.8448769041 25.3047127762 10.8448769041
Cu 10.8448769041 27.1121922602 12.6523563881
Cu 12.6523563881 25.3047127762 12.6523563881
Cu 12.6523563881 27.1121922602 10.8448769041
Cu 10.8448769041 25.3047127762 14.4598358721
Cu 10.8448769041 27.1121922602 16.2673153561
Cu 12.6523563881 25.3047127762 16.2673153561
Cu 12.6523563881 27.1121922602 14.4598358721
Cu 10.8448769041 25.3047127762 18.0747948401
Cu 10.8448769041 27.1121922602 19.8822743241
Cu 12.6523563881 25.3047127762 19.8822743241
Cu 12.6523563881 27.1121922602 18.0747948401
Cu 10.8448769041 25.3047127762 21.6897538081
Cu 10.8448769041 27.1121922602 23.4972332921
Cu 12.6523563881 25.3047127762 23.4972332921
Cu 12.6523563881 27.1121922602 21.6897538081
Cu 10.8448769041 25.3047127762 25.3047127762
Cu 10.8448769041 27.1121922602 27.1121922602
Cu 12.6523563881 25.3047127762 27.1121922602
Cu 12.6523563881 27.1121922602 25.3047127762
Cu 14.4598358721 0.0000000000 0.0000000000
Cu 14.4598358721 1.8074794840 1.8074794840
Cu 16.2673153561 0.0000000000 1.8074794840
Cu 16.2673153561 1.8074794840 0.0000000000
Cu 14.4598358721 0.0000000000 3.6149589680
Cu 14.4598358721 1.8074794840 5.4224384520
Cu 16.2673153561 0.0000000000 5.4224384520
Cu 16.2673153561 1.8074794840 3.6149589680
Cu 14.4598358721 0.0000000000 7.2299179360
Cu 14.4598358721 1.8074794840 9.0373974201
Cu 16.2673153561 0.0000000000 9.0373974201
Cu 16.2673153561 1.8074794840 7.2299179360
Cu 14.4598358721 0.0000000000 10.8448769041
Cu 14.4598358721 1.8074794840 12.6523563881
Cu 16.2673153561 0.0000000000 12.6523563881
Cu 16.2673153561 1.8074794840 10.8448769041
Cu 14.4598358721 0.0000000000 14.4598358721
Cu 14.4598358721 1.8074794840 16.2673153561
Cu 16.2673153561 0.0000000000 16.2673153561
Cu 16.2673153561 1.8074794840 14.4598358721
Cu 14.4598358721 0.0000000000 18.0747948401
Cu 14.4598358721 1.8074794840 19.8822743241
Cu 16.2673153561 0.0000000000 19.8822743241
Cu 16.2673153561 1.8074794840 18.0747948401
Cu 14.4598358721 0.0000000000 21.6897538081
Cu 14.4598358721 1.8074794840 23.4972332921
Cu 16.2673153561 0.0000000000 23.4972332921
Cu 16.2673153561 1.8074794840 21.6897538081
Cu 14.4598358721 0.0000000000 25.3047127762
Cu 14.4598358721 1.8074794840 27.1121922602
Cu 16.2673153561 0.0000000000 27.1121922602
Cu 16.2673153561 1.8074794840 25.3047127762
Cu 14.4598358721 3.6149589680 0.0000000000
Cu 14.4598358721 5.4224384520 1.8074794840
Cu 16.2673153561 3.6149589680 1.8074794840
Cu 16.2673153561 5.4224384520 0.0000000000
Cu 14.4598358721 3.6149589680 3.6149589680
Cu 14.4598358721 5.4224384520 5.4224384520
Cu 16.2673153561 3.6149589680 5.4224384520
Cu 16.2673153561 5.4224384520 3.6149589680
Cu 14.4598358721 3.6149589680 7.2299179360
Cu 14.4598358721 5.4224384520 9.0373974201
Cu 16.2673153561 3.6149589680 9.0373974201
Cu 16.2673153561 5.4224384520 7.2299179360
Cu 14.4598358721 3.6149589680 10.8448769041
Cu 14.4598358721 5.4224384520 12.6523563881
Cu 16.2673153561 3.6149589680 12.6523563881
Cu 16.2673153561 5.4224384520 10.8448769041
Cu 14.4598358721 3.6149589680 14.4598358721
Cu 14.4598358721 5.4224384520 16.2673153561
Cu 16.2673153561 3.6149589680 16.2673153561
Cu 16.2673153561 5.4224384520 14.4598358721
Cu 14.4598358721 3.6149589680 18.0747948401
Cu 14.4598358721 5.4224384520 19.8822743241
Cu 16.2673153561 3.6149589680 19.8822743241
Cu 16.2673153561 5.4224384520 18.0747948401
Cu 14.4598358721 3.6149589680 21.6897538081
Cu 14.4598358721 5.4224384520 23.4972332921
Cu 16.2673153561 3.6149589680 23.4972332921
Cu 16.2673153561 5.4224384520 21.6897538081
Cu 14.4598358721 3.6149589680 25.3047127762
Cu 14.4598358721 5.4224384520 27.1121922602
Cu 16.2673153561 3.6149589680 27.1121922602
Cu 16.2673153561 5.4224384520 25.3047127762
Cu 14.4598358721 7.2299179360 0.0000000000
Cu 14.4598358721 9.0373974201 1.8074794840
Cu 16.2673153561 7.2299179360 1.8074794840
Cu 16.2673153561 9.0373974201 0.0000000000
Cu 14.4598358721 7.2299179360 3.6149589680
Cu 14.4598358721 9.0373974201 5.4224384520
Cu 16.2673153561 7.2299179360 5.4224384520
Cu 16.2673153561 9.0373974201 3.6149589680
Cu 14.4598358721 7.2299179360 7.2299179360
Cu 14.4598358721 9.0373974201 9.0373974201
Cu 16.2673153561 7.2299179360 9.0373974201
Cu 16.2673153561 9.0373974201 7.2299179360
Cu 14.4598358721 7.2299179360 10.8448769041
Cu 14.4598358721 9.0373974201 12.6523563881
Cu 16.2673153561 7.2299179360 12.6523563881
Cu 16.2673153561 9.0373974201 10.8448769041
Cu 14.4598358721 7.2299179360 14.4598358721
Cu 14.4598358721 9.0373974201 16.2673153561
Cu 16.2673153561 7.2299179360 16.2673153561
Cu 16.2673153561 9.0373974201 14.4598358721
Cu 14.4598358721 7.2299179360 18.0747948401
Cu 14.4598358721 9.0373974201 19.8822743241
Cu 16.2673153561 7.2299179360 19.8822743241
Cu 16.2673153561 9.0373974201 18.0747948401
Cu 14.4598358721 7.2299179360 21.6897538081
Cu 14.4598358721 9.0373974201 23.4972332921
Cu 16.2673153561 7.2299179360 23.4972332921
Cu 16.2673153561 9.0373974201 21.6897538081
Cu 14.4598358721 7.2299179360 25.3047127762
Cu 14.4598358721 9.0373974201 27.1121922602
Cu 16.2673153561 7.2299179360 27.1121922602
Cu 16.2673153561 9.0373974201 25.3047127762
Cu 14.4598358721 10.8448769041 0.0000000000
Cu 14.4598358721 12.6523563881 1.8074794840
Cu 16.2673153561 10.8448769041 1.8074794840
Cu 16.2673153561 12.6523563881 0.0000000000
Cu 14.4598358721 10.8448769041 3.6149589680
Cu 14.4598358721 12.6523563881 5.4224384520
Cu 16.2673153561 10.8448769041 5.4224384520
Cu 16.2673153561 12.6523563881 3.6149589680
Cu 14.4598358721 10.8448769041 7.2299179360
Cu 14.4598358721 12.6523563881 9.0373974201
Cu 16.2673153561 10.8448769041 9.0373974201
Cu 16.2673153561 12.6523563881 7.2299179360
Cu 14.4598358721 10.8448769041 10.8448769041
Cu 14.4598358721 12.6523563881 12.6523563881
Cu 16.2673153561 10.8448769041 12.6523563881
Cu 16.2673153561 12.6523563881 10.8448769041
Cu 14.4598358721 10.8448769041 14.4598358721
Cu 14.4598358721 12.6523563881 16.2673153561
Cu 16.2673153561 10.8448769041 16.2673153561
Cu 16.2673153561 12.6523563881 14.4598358721
Cu 14.4598358721 10.8448769041 18.0747948401
Cu 14.4598358721 12.6523563881 19.8822743241
Cu 16.2673153561 10.8448769041 19.8822743241
Cu 16.2673153561 12.6523563881 18.0747948401
Cu 14.4598358721 10.8448769041 21.6897538081
Cu 14.4598358721 12.6523563881 23.4972332921
Cu 16.2673153561 10.8448769041 23.4972332921
Cu 16.2673153561 12.6523563881 21.6897538081
Cu 14.4598358721 10.8448769041 25.3047127762
Cu 14.4598358721 12.6523563881 27.1121922602
Cu 16.2673153561 10.8448769041 27.1121922602
Cu 16.2673153561 12.6523563881 25.3047127762
Cu 14.4598358721 14.4598358721 0.0000000000
Cu 14.4598358721 16.2673153561 1.8074794840
Cu 16.2673153561 14.4598358721 1.8074794840
Cu 16.2673153561 16.2673153561 0.0000000000
Cu 14.4598358721 14.4598358721 3.6149589680
Cu 14.4598358721 16.2673153561 5.4224384520
Cu 16.2673153561 14.4598358721 5.4224384520
Cu 16.2673153561 16.2673153561 3.6149589680
Cu 14.4598358721 14.4598358721 7.2299179360
Cu 14.4598358721 16.2673153561 9.0373974201
Cu 16.2673153561 14.4598358721 9.0373974201
Cu 16.2673153561 16.2673153561 7.2299179360
Cu 14.4598358721 14.4598358721 10.8448769041
Cu 14.4598358721 16.2673153561 12.6523563881
Cu 16.2673153561 14.4598358721 12.6523563881
Cu 16.2673153561 16.2673153561 10.8448769041
Cu 14.4598358721 14.4598358721 14.4598358721
Cu 14.4598358721 16.2673153561 16.2673153561
Cu 16.2673153561 14.4598358721 16.2673153561
Cu 16.2673153561 16.2673153561 14.4598358721
Cu 14.4598358721 14.4598358721 18.0747948401
Cu 14.4598358721 16.2673153561 19.8822743241
Cu 16.2673153561 14.4598358721 19.8822743241
Cu 16.2673153561 16.2673153561 18.0747948401
Cu 14.4598358721 14.4598358721 21.6897538081
Cu 14.4598358721 16.2673153561 23.4972332921
Cu 16.2673153561 14.4598358721 23.4972332921
Cu 16.2673153561 16.2673153561 21.6897538081
Cu 14.4598358721 14.4598358721 25.3047127762
Cu 14.4598358721 16.2673153561 27.1121922602
Cu 16.2673153561 14.4598358721 27.1121922602
Cu 16.2673153561 16.2673153561 25.3047127762
Cu 14.4598358721 18.0747948401 0.0000000000
Cu 14.4598358721 19.8822743241 1.8074794840
Cu 16.2673153561 18.0747948401 1.8074794840
Cu 16.2673153561 19.8822743241 0.0000000000
Cu 14.4598358721 18.0747948401 3.6149589680
Cu 14.4598358721 19.8822743241 5.4224384520
Cu 16.2673153561 18.0747948401 5.4224384520
Cu 16.2673153561 19.8822743241 3.6149589680
Cu 14.4598358721 18.0747948401 7.2299179360
Cu 14.4598358721 19.8822743241 9.0373974201
Cu 16.2673153561 18.0747948401 9.0373974201
Cu 16.2673153561 19.8822743241 7.2299179360
Cu 14.4598358721 18.0747948401 10.8448769041
Cu 14.4598358721 19.8822743241 12.6523563881
Cu 16.2673153561 18.0747948401 12.6523563881
Cu 16.2673153561 19.8822743241 10.8448769041
Cu 14.4598358721 18.0747948401 14.4598358721
Cu 14.4598358721 19.8822743241 16.2673153561
Cu 16.2673153561 18.0747948401 16.2673153561
Cu 16.2673153561 19.8822743241 14.4598358721
Cu 14.4598358721 18.0747948401 18.0747948401
Cu 14.4598358721 19.8822743241 19.8822743241
Cu 16.2673153561 18.0747948401 19.8822743241
Cu 16.2673153561 19.8822743241 18.0747948401
Cu 14.4598358721 18.0747948401 21.6897538081
Cu 14.4598358721 19.8822743241 23.4972332921
Cu 16.2673153561 18.0747948401 23.4972332921
Cu 16.2673153561 19.8822743241 21.6897538081
Cu 14.4598358721 18.0747948401 25.3047127762
Cu 14.4598358721 19.8822743241 27.1121922602
Cu 16.2673153561 18.0747948401 27.1121922602
Cu 16.2673153561 19.8822743241 25.3047127762
Cu 14.4598358721 21.6897538081 0.0000000000
Cu 14.4598358721 23.4972332921 1.8074794840
Cu 16.2673153561 21.6897538081 1.8074794840
Cu 16.2673153561 23.4972332921 0.0000000000
Cu 14.4598358721 21.6897538081 3.6149589680
Cu 14.4598358721 23.4972332921 5.4224384520
Cu 16.2673153561 21.6897538081 5.4224384520
Cu 16.2673153561 23.4972332921 3.6149589680
Cu 14.4598358721 21.6897538081 7.2299179360
Cu 14.4598358721 23.4972332921 9.0373974201
Cu 16.2673153561 21.6897538081 9.0373974201
Cu 16.2673153561 23.4972332921 7.2299179360
Cu 14.4598358721 21.6897538081 10.8448769041
Cu 14.4598358721 23.4972332921 12.6523563881
Cu 16.2673153561 21.6897538081 12.6523563881
Cu 16.2673153561 23.4972332921 10.8448769041
Cu 14.4598358721 21.6897538081 14.4598358721
Cu 14.4598358721 23.4972332921 16.2673153561
Cu 16.2673153561 21.6897538081 16.2673153561
Cu 16.2673153561 23.4972332921 14.4598358721
Cu 14.4598358721 21.6897538081 18.0747948401
Cu 14.4598358721 23.4972332921 19.8822743241
Cu 16.2673153561 21.6897538081 19.8822743241
Cu 16.2673153561 23.4972332921 18.0747948401
Cu 14.4598358721 21.6897538081 21.6897538081
Cu 14.4598358721 23.4972332921 23.4972332921
Cu 16.2673153561 21.6897538081 23.4972332921
Cu 16.2673153561 23.4972332921 21.6897538081
Cu 14.4598358721 21.6897538081 25.3047127762
Cu 14.4598358721 23.4972332921 27.1121922602
Cu 16.2673153561 21.6897538081 27.1121922602
Cu 16.2673153561 23.4972332921 25.3047127762
Cu 14.4598358721 25.3047127762 0.0000000000
Cu 14.4598358721 27.1121922602 1.8074794840
Cu 16.2673153561 25.3047127762 1.8074794840
Cu 16.2673153561 27.1121922602 0.0000000000
Cu 14.4598358721 25.3047127762 3.6149589680
Cu 14.4598358721 27.1121922602 5.4224384520
Cu 16.2673153561 25.3047127762 5.4224384520
Cu 16.2673153561 27.1121922602 3.6149589680
Cu 14.4598358721 25.3047127762 7.2299179360
Cu 14.4598358721 27.1121922602 9.0373974201
Cu 16.2673153561 25.3047127762 9.0373974201
Cu 16.2673153561 27.1121922602 7.2299179360
Cu 14.4598358721 25.3047127762 10.8448769041
Cu 14.4598358721 27.1121922602 12.6523563881
Cu 16.2673153561 25.3047127762 12.6523563881
Cu 16.2673153561 27.1121922602 10.8448769041
Cu 14.4598358721 25.3047127762 14.4598358721
Cu 14.4598358721 27.1121922602 16.2673153561
Cu 16.2673153561 25.3047127762 16.2673153561
Cu 16.2673153561 27.1121922602 14.4598358721
Cu 14.4598358721 25.3047127762 18.0747948401
Cu 14.4598358721 27.1121922602 19.8822743241
Cu 16.2673153561 25.3047127762 19.8822743241
Cu 16.2673153561 27.1121922602 18.0747948401
Cu 14.4598358721 25.3047127762 21.6897538081
Cu 14.4598358721 27.1121922602 23.4972332921
Cu 16.2673153561 25.3047127762 23.4972332921
Cu 16.2673153561 27.1121922602 21.6897538081
Cu 14.4598358721 25.3047127762 25.3047127762
Cu 14.4598358721 27.1121922602 27.1121922602
Cu 16.2673153561 25.3047127762 27.1121922602
Cu 16.2673153561 27.1121922602 25.3047127762
Cu 18.0747948401 0.0000000000 0.0000000000
Cu 18.0747948401 1.8074794840 1.8074794840
Cu 19.8822743241 0.0000000000 1.8074794840
Cu 19.8822743241 1.8074794840 0.0000000000
Cu 18.0747948401 0.0000000000 3.6149589680
Cu 18.0747948401 1.8074794840 5.4224384520
Cu 19.8822743241 0.0000000000 5.4224384520
Cu 19.8822743241 1.8074794840 3.6149589680
Cu 18.0747948401 0.0000000000 7.2299179360
Cu 18.0747948401 1.8074794840 9.0373974201
Cu 19.8822743241 0.0000000000 9.0373974201
Cu 19.8822743241 1.8074794840 7.2299179360
Cu 18.0747948401 0.0000000000 10.8448769041
Cu 18.0747948401 1.8074794840 12.6523563881
Cu 19.8822743241 0.0000000000 12.6523563881
Cu 19.8822743241 1.8074794840 10.8448769041
Cu 18.0747948401 0.0000000000 14.4598358721
Cu 18.0747948401 1.8074794840 16.2673153561
Cu 19.8822743241 0.0000000000 16.2673153561
Cu 19.8822743241 1.8074794840 14.4598358721
Cu 18.0747948401 0.0000000000 18.0747948401
Cu 18.0747948401 1.8074794840 19.8822743241
Cu 19.8822743241 0.0000000000 19.8822743241
Cu 19.8822743241 1.8074794840 18.0747948401
Cu 18.0747948401 0.0000000000 21.6897538081
Cu 18.0747948401 1.8074794840 23.4972332921
Cu 19.8822743241 0.0000000000 23.4972332921
Cu 19.8822743241 1.8074794840 21.6897538081
Cu 18.0747948401 0.0000000000 25.3047127762
Cu 18.0747948401 1.8074794840 27.1121922602
Cu 19.8822743241 0.0000000000 27.1121922602
Cu 19.8822743241 1.8074794840 25.3047127762
Cu 18.0747948401 3.6149589680 0.0000000000
Cu 18.0747948401 5.4224384520 1.8074794840
Cu 19.8822743241 3.6149589680 1.8074794840
Cu 19.8822743241 5.4224384520 0.0000000000
Cu 18.0747948401 3.6149589680 3.6149589680
Cu 18.0747948401 5.4224384520 5.4224384520
Cu 19.8822743241 3.6149589680 5.4224384520
Cu 19.8822743241 5.4224384520 3.6149589680
Cu 18.0747948401 3.6149589680 7.2299179360
Cu 18.0747948401 5.4224384520 9.0373974201
Cu 19.8822743241 3.6149589680 9.0373974201
Cu 19.8822743241 5.4224384520 7.2299179360
Cu 18.0747948401 3.6149589680 10.8448769041
Cu 18.0747948401 5.4224384520 12.6523563881
Cu 19.8822743241 3.6149589680 12.6523563881
Cu 19.8822743241 5.4224384520 10.8448769041
Cu 18.0747948401 3.6149589680 14.4598358721
Cu 18.0747948401 5.4224384520 16.2673153561
Cu 19.8822743241 3.6149589680 16.2673153561
Cu 19.8822743241 5.4224384520 14.4598358721
Cu 18.0747948401 3.6149589680 18.0747948401
Cu 18.0747948401 5.4224384520 19.8822743241
Cu 19.8822743241 3.6149589680 19.8822743241
Cu 19.8822743241 5.4224384520 18.0747948401
Cu 18.0747948401 3.6149589680 21.6897538081
Cu 18.0747948401 5.4224384520 23.4972332921
Cu 19.8822743241 3.6149589680 23.4972332921
Cu 19.8822743241 5.4224384520 21.6897538081
Cu 18.0747948401 3.6149589680 25.3047127762
Cu 18.0747948401 5.4224384520 27.1121922602
Cu 19.8822743241 3.6149589680 27.1121922602
Cu 19.8822743241 5.4224384520 25.3047127762
Cu 18.0747948401 7.2299179360 0.0000000000
Cu 18.0747948401 9.0373974201 1.8074794840
Cu 19.8822743241 7.2299179360 1.8074794840
Cu 19.8822743241 9.0373974201 0.0000000000
Cu 18.0747948401 7.2299179360 3.6149589680
Cu 18.0747948401 9.0373974201 5.4224384520
Cu 19.8822743241 7.2299179360 5.4224384520
Cu 19.8822743241 9.0373974201 3.6149589680
Cu 18.0747948401 7.2299179360 7.2299179360
Cu 18.0747948401 9.0373974201 9.0373974201
Cu 19.8822743241 7.2299179360 9.0373974201
Cu 19.8822743241 9.0373974201 7.2299179360
Cu 18.0747948401 7.2299179360 10.8448769041
Cu 18.0747948401 9.0373974201 12.6523563881
Cu 19.8822743241 7.2299179360 12.6523563881
Cu 19.8822743241 9.0373974201 10.8448769041
Cu 18.0747948401 7.2299179360 14.4598358721
Cu 18.0747948401 9.0373974201 16.2673153561
Cu 19.8822743241 7.2299179360 16.2673153561
Cu 19.8822743241 9.0373974201 14.4598358721
Cu 18.0747948401 7.2299179360 18.0747948401
Cu 18.0747948401 9.0373974201 19.8822743241
Cu 19.8822743241 7.2299179360 19.8822743241
Cu 19.8822743241 9.0373974201 18.0747948401
Cu 18.0747948401 7.2299179360 21.6897538081
Cu 18.0747948401 9.0373974201 23.4972332921
Cu 19.8822743241 7.2299179360 23.4972332921
Cu 19.8822743241 9.0373974201 21.6897538081
Cu 18.0747948401 7.2299179360 25.3047127762
Cu 18.0747948401 9.0373974201 27.1121922602
Cu 19.8822743241 7.2299179360 27.1121922602
Cu 19.8822743241 9.0373974201 25.3047127762
Cu 18.0747948401 10.8448769041 0.0000000000
Cu 18.0747948401 12.6523563881 1.8074794840
Cu 19.8822743241 10.8448769041 1.8074794840
Cu 19.8822743241 12.6523563881 0.0000000000
Cu 18.0747948401 10.8448769041 3.6149589680
Cu 18.0747948401 12.6523563881 5.4224384520
Cu 19.8822743241 10.8448769041 5.4224384520
Cu 19.8822743241 12.6523563881 3.6149589680
Cu 18.0747948401 10.8448769041 7.2299179360
Cu 18.0747948401 12.6523563881 9.0373974201
Cu 19.8822743241 10.8448769041 9.0373974201
Cu 19.8822743241 12.6523563881 7.2299179360
Cu 18.0747948401 10.8448769041 10.8448769041
Cu 18.0747948401 12.6523563881 12.6523563881
Cu 19.8822743241 10.8448769041 12.6523563881
Cu 19.8822743241 12.6523563881 10.8448769041
Cu 18.0747948401 10.8448769041 14.4598358721
Cu 18.0747948401 12.6523563881 16.2673153561
Cu 19.8822743241 10.8448769041 16.2673153561
Cu 19.8822743241 12.6523563881 14.4598358721
Cu 18.0747948401 10.8448769041 18.0747948401
Cu 18.0747948401 12.6523563881 19.8822743241
Cu 19.8822743241 10.8448769041 19.8822743241
Cu 19.8822743241 12.6523563881 18.0747948401
Cu 18.0747948401 10.8448769041 21.6897538081
Cu 18.0747948401 12.6523563881 23.4972332921
Cu 19.8822743241 10.8448769041 23.4972332921
Cu 19.8822743241 12.6523563881 21.6897538081
Cu 18.0747948401 10.8448769041 25.3047127762
Cu 18.0747948401 12.6523563881 27.1121922602
Cu 19.8822743241 10.8448769041 27.1121922602
Cu 19.8822743241 12.6523563881 25.3047127762
Cu 18.0747948401 14.4598358721 0.0000000000
Cu 18.0747948401 16.2673153561 1.8074794840
Cu 19.8822743241 14.4598358721 1.8074794840
Cu 19.8822743241 16.2673153561 0.0000000000
Cu 18.0747948401 14.4598358721 3.6149589680
Cu 18.0747948401 16.2673153561 5.4224384520
Cu 19.8822743241 14.4598358721 5.4224384520
Cu 19.8822743241 16.2673153561 3.6149589680
Cu 18.0747948401 14.4598358721 7.2299179360
Cu 18.0747948401 16.2673153561 9.0373974201
Cu 19.8822743241 14.4598358721 9.0373974201
Cu 19.8822743241 16.2673153561 7.2299179360
Cu 18.0747948401 14.4598358721 10.8448769041
Cu 18.0747948401 16.2673153561 12.6523563881
Cu 19.8822743241 14.4598358721 12.6523563881
Cu 19.8822743241 16.2673153561 10.8448769041
Cu 18.0747948401 14.4598358721 14.4598358721
Cu 18.0747948401 16.2673153561 16.2673153561
Cu 19.8822743241 14.4598358721 16.2673153561
Cu 19.8822743241 16.2673153561 14.4598358721
Cu 18.0747948401 14.4598358721 18.0747948401
Cu 18.0747948401 16.2673153561 19.8822743241
Cu 19.8822743241 14.4598358721 19.8822743241
Cu 19.8822743241 16.2673153561 18.0747948401
Cu 18.0747948401 14.4598358721 21.6897538081
Cu 18.0747948401 16.2673153561 23.4972332921
Cu 19.8822743241 14.4598358721 23.4972332921
Cu 19.8822743241 16.2673153561 21.6897538081
Cu 18.0747948401 14.4598358721 25.3047127762
Cu 18.0747948401 16.2673153561 27.1121922602
Cu 19.8822743241 14.4598358721 27.1121922602
Cu 19.8822743241 16.2673153561 25.3047127762
Cu 18.0747948401 18.0747948401 0.0000000000
Cu 18.0747948401 19.8822743241 1.8074794840
Cu 19.8822743241 18.0747948401 1.8074794840
Cu 19.8822743241 19.8822743241 0.0000000000
Cu 18.0747948401 18.0747948401 3.6149589680
Cu 18.0747948401 19.8822743241 5.4224384520
Cu 19.8822743241 18.0747948401 5.4224384520
Cu 19.8822743241 19.8822743241 3.6149589680
Cu 18.0747948401 18.0747948401 7.2299179360
Cu 18.0747948401 19.8822743241 9.0373974201
Cu 19.8822743241 18.0747948401 9.0373974201
Cu 19.8822743241 19.8822743241 7.2299179360
Cu 18.0747948401 18.0747948401 10.8448769041
Cu 18.0747948401 19.8822743241 12.6523563881
Cu 19.8822743241 18.0747948401 12.6523563881
Cu 19.8822743241 19.8822743241 10.8448769041
Cu 18.0747948401 18.0747948401 14.4598358721
Cu 18.0747948401 19.8822743241 16.2673153561
Cu 19.8822743241 18.0747948401 16.2673153561
Cu 19.8822743241 19.8822743241 14.4598358721
Cu 18.0747948401 18.0747948401 18.0747948401
Cu 18.0747948401 19.8822743241 19.8822743241
Cu 19.8822743241 18.0747948401 19.8822743241
Cu 19.8822743241 19.8822743241 18.0747948401
Cu 18.0747948401 18.0747948401 21.6897538081
Cu 18.0747948401 19.8822743241 23.4972332921
Cu 19.8822743241 18.0747948401 23.4972332921
Cu 19.8822743241 19.8822743241 21.6897538081
Cu 18.0747948401 18.0747948401 25.3047127762
Cu 18.0747948401 19.8822743241 27.1121922602
Cu 19.8822743241 18.0747948401 27.1121922602
Cu 19.8822743241 19.8822743241 25.3047127762
Cu 18.0747948401 21.6897538081 0.0000000000
Cu 18.0747948401 23.4972332921 1.8074794840
Cu 19.8822743241 21.6897538081 1.8074794840
Cu 19.8822743241 23.4972332921 0.0000000000
Cu 18.0747948401 21.6897538081 3.6149589680
Cu 18.0747948401 23.4972332921 5.4224384520
Cu 19.8822743241 21.6897538081 5.4224384520
Cu 19.8822743241 23.4972332921 3.6149589680
Cu 18.0747948401 21.6897538081 7.2299179360
Cu 18.0747948401 23.4972332921 9.0373974201
Cu 19.8822743241 21.6897538081 9.0373974201
Cu 19.8822743241 23.4972332921 7.2299179360
Cu 18.0747948401 21.6897538081 10.8448769041
Cu 18.0747948401 23.4972332921 12.6523563881
Cu 19.8822743241 21.6897538081 12.6523563881
Cu 19.8822743241 23.4972332921 10.8448769041
Cu 18.0747948401 21.6897538081 14.4598358721
Cu 18.0747948401 23.4972332921 16.2673153561
Cu 19.8822743241 21.6897538081 16.2673153561
Cu 19.8822743241 23.4972332921 14.4598358721
Cu 18.0747948401 21.6897538081 18.0747948401
Cu 18.0747948401 23.4972332921 19.8822743241
Cu 19.8822743241 21.6897538081 19.8822743241
Cu 19.8822743241 23.4972332921 18.0747948401
Cu 18.0747948401 21.6897538081 21.6897538081
Cu 18.0747948401 23.4972332921 23.4972332921
Cu 19.8822743241 21.6897538081 23.4972332921
Cu 19.8822743241 23.4972332921 21.6897538081
Cu 18.0747948401 21.6897538081 25.3047127762
Cu 18.0747948401 23.4972332921 27.1121922602
Cu 19.8822743241 21.6897538081 27.1121922602
Cu 19.8822743241 23.4972332921 25.3047127762
Cu 18.0747948401 25.3047127762 0.0000000000
Cu 18.0747948401 27.1121922602 1.8074794840
Cu 19.8822743241 25.3047127762 1.8074794840
Cu 19.8822743241 27.1121922602 0.0000000000
Cu 18.0747948401 25.3047127762 3.6149589680
Cu 18.0747948401 27.1121922602 5.4224384520
Cu 19.8822743241 25.3047127762 5.4224384520
Cu 19.8822743241 27.1121922602 3.6149589680
Cu 18.0747948401 25.3047127762 7.2299179360
Cu 18.0747948401 27.1121922602 9.0373974201
Cu 19.8822743241 25.3047127762 9.0373974201
Cu 19.8822743241 27.1121922602 7.2299179360
Cu 18.0747948401 25.3047127762 10.8448769041
Cu 18.0747948401 27.1121922602 12.6523563881
Cu 19.8822743241 25.3047127762 12.6523563881
Cu 19.8822743241 27.1121922602 10.8448769041
Cu 18.0747948401 25.3047127762 14.4598358721
Cu 18.0747948401 27.1121922602 16.2673153561
Cu 19.8822743241 25.3047127762 16.2673153561
Cu 19.8822743241 27.1121922602 14.4598358721
Cu 18.0747948401 25.3047127762 18.0747948401
Cu 18.0747948401 27.1121922602 19.8822743241
Cu 19.8822743241 25.3047127762 19.8822743241
Cu 19.8822743241 27.1121922602 18.0747948401
Cu 18.0747948401 25.3047127762 21.6897538081
Cu 18.0747948401 27.1121922602 23.4972332921
Cu 19.8822743241 25.3047127762 23.4972332921
Cu 19.8822743241 27.1121922602 21.6897538081
Cu 18.0747948401 25.3047127762 25.3047127762
Cu 18.0747948401 27.1121922602 27.1121922602
Cu 19.8822743241 25.3047127762 27.1121922602
Cu 19.8822743241 27.1121922602 25.3047127762
Cu 21.6897538081 0.0000000000 0.0000000000
Cu 21.6897538081 1.8074794840 1.8074794840
Cu 23.4972332921 0.0000000000 1.8074794840
Cu 23.4972332921 1.8074794840 0.0000000000
Cu 21.6897538081 0.0000000000 3.6149589680
Cu 21.6897538081 1.8074794840 5.4224384520
Cu 23.4972332921 0.0000000000 5.4224384520
Cu 23.4972332921 1.8074794840 3.6149589680
Cu 21.6897538081 0.0000000000 7.2299179360
Cu 21.6897538081 1.8074794840 9.0373974201
Cu 23.4972332921 0.0000000000 9.0373974201
Cu 23.4972332921 1.8074794840 7.2299179360
Cu 21.6897538081 0.0000000000 10.8448769041
Cu 21.6897538081 1.8074794840 12.6523563881
Cu 23.4972332921 0.0000000000 12.6523563881
Cu 23.4972332921 1.8074794840 10.8448769041
Cu 21.6897538081 0.0000000000 14.4598358721
Cu 21.6897538081 1.8074794840 16.2673153561
Cu 23.4972332921 0.0000000000 16.2673153561
Cu 23.4972332921 1.8074794840 14.4598358721
Cu 21.6897538081 0.0000000000 18.0747948401
Cu 21.6897538081 1.8074794840 19.8822743241
Cu 23.4972332921 0.0000000000 19.8822743241
Cu 23.4972332921 1.8074794840 18.0747948401
Cu 21.6897538081 0.0000000000 21.6897538081
Cu 21.6897538081 1.8074794840 23.4972332921
Cu 23.4972332921 0.0000000000 23.4972332921
Cu 23.4972332921 1.8074794840 21.6897538081
Cu 21.6897538081 0.0000000000 25.3047127762
Cu 21.6897538081 1.8074794840 27.1121922602
Cu 23.4972332921 0.0000000000 27.1121922602
Cu 23.4972332921 1.8074794840 25.3047127762
Cu 21.6897538081 3.6149589680 0.0000000000
Cu 21.6897538081 5.4224384520 1.8074794840
Cu 23.4972332921 3.6149589680 1.8074794840
Cu 23.4972332921 5.4224384520 0.0000000000
Cu 21.6897538081 3.6149589680 3.6149589680
Cu 21.6897538081 5.4224384520 5.4224384520
Cu 23.4972332921 3.6149589680 5.4224384520
Cu 23.4972332921 5.4224384520 3.6149589680
Cu 21.6897538081 3.6149589680 7.2299179360
Cu 21.6897538081 5.4224384520 9.0373974201
Cu 23.4972332921 3.6149589680 9.0373974201
Cu 23.4972332921 5.4224384520 7.2299179360
Cu 21.6897538081 3.6149589680 10.8448769041
Cu 21.6897538081 5.4224384520 12.6523563881
Cu 23.4972332921 3.6149589680 12.6523563881
Cu 23.4972332921 5.4224384520 10.8448769041
Cu 21.6897538081 3.6149589680 14.4598358721
Cu 21.6897538081 5.4224384520 16.2673153561
Cu 23.4972332921 3.6149589680 16.2673153561
Cu 23.4972332921 5.4224384520 14.4598358721
Cu 21.6897538081 3.6149589680 18.0747948401
Cu 21.6897538081 5.4224384520 19.8822743241
Cu 23.4972332921 3.6149589680 19.8822743241
Cu 23.4972332921 5.4224384520 18.0747948401
Cu 21.6897538081 3.6149589680 21.6897538081
Cu 21.6897538081 5.4224384520 23.4972332921
Cu 23.4972332921 3.6149589680 23.4972332921
Cu 23.4972332921 5.4224384520 21.6897538081
Cu 21.6897538081 3.6149589680 25.3047127762
Cu 21.6897538081 5.4224384520 27.1121922602
Cu 23.4972332921 3.6149589680 27.1121922602
Cu 23.4972332921 5.4224384520 25.3047127762
Cu 21.6897538081 7.2299179360 0.0000000000
Cu 21.6897538081 9.0373974201 1.8074794840
Cu 23.4972332921 7.2299179360 1.8074794840
Cu 23.4972332921 9.0373974201 0.0000000000
Cu 21.6897538081 7.2299179360 3.6149589680
Cu 21.6897538081 9.0373974201 5.4224384520
Cu 23.4972332921 7.2299179360 5.4224384520
Cu 23.4972332921 9.0373974201 3.6149589680
Cu 21.6897538081 7.2299179360 7.2299179360
Cu 21.6897538081 9.0373974201 9.0373974201
Cu 23.4972332921 7.2299179360 9.0373974201
Cu 23.4972332921 9.0373974201 7.2299179360
Cu 21.6897538081 7.2299179360 10.8448769041
Cu 21.6897538081 9.0373974201 12.6523563881
Cu 23.4972332921 7.2299179360 12.6523563881
Cu 23.4972332921 9.0373974201 10.8448769041
Cu 21.6897538081 7.2299179360 14.4598358721
Cu 21.6897538081 9.0373974201 16.2673153561
Cu 23.4972332921 7.2299179360 16.2673153561
Cu 23.4972332921 9.0373974201 14.4598358721
Cu 21.6897538081 7.2299179360 18.0747948401
Cu 21.6897538081 9.0373974201 19.8822743241
Cu 23.4972332921 7.2299179360 19.8822743241
Cu 23.4972332921 9.0373974201 18.0747948401
Cu 21.6897538081 7.2299179360 21.6897538081
Cu 21.6897538081 9.0373974201 23.4972332921
Cu 23.4972332921 7.2299179360 23.4972332921
Cu 23.4972332921 9.0373974201 21.6897538081
Cu 21.6897538081 7.2299179360 25.3047127762
Cu 21.6897538081 9.0373974201 27.1121922602
Cu 23.4972332921 7.2299179360 27.1121922602
Cu 23.4972332921 9.0373974201 25.3047127762
Cu 21.6897538081 10.8448769041 0.0000000000
Cu 21.6897538081 12.6523563881 1.8074794840
Cu 23.4972332921 10.8448769041 1.8074794840
Cu 23.4972332921 12.6523563881 0.0000000000
Cu 21.6897538081 10.8448769041 3.6149589680
Cu 21.6897538081 12.6523563881 5.4224384520
Cu 23.4972332921 10.8448769041 5.4224384520
Cu 23.4972332921 12.6523563881 3.6149589680
Cu 21.6897538081 10.8448769041 7.2299179360
Cu 21.6897538081 12.6523563881 9.0373974201
Cu 23.4972332921 10.8448769041 9.0373974201
Cu 23.4972332921 12.6523563881 7.2299179360
Cu 21.6897538081 10.8448769041 10.8448769041
Cu 21.6897538081 12.6523563881 12.6523563881
Cu 23.4972332921 10.8448769041 12.6523563881
Cu 23.4972332921 12.6523563881 10.8448769041
Cu 21.6897538081 10.8448769041 14.4598358721
Cu 21.6897538081 12.6523563881 16.2673153561
Cu 23.4972332921 10.8448769041 16.2673153561
Cu 23.4972332921 12.6523563881 14.4598358721
Cu 21.6897538081 10.8448769041 18.0747948401
Cu 21.6897538081 12.6523563881 19.8822743241
Cu 23.4972332921 10.8448769041 19.8822743241
Cu 23.4972332921 12.6523563881 18.0747948401
Cu 21.6897538081 10.8448769041 21.6897538081
Cu 21.6897538081 12.6523563881 23.4972332921
Cu 23.4972332921 10.8448769041 23.4972332921
Cu 23.4972332921 12.6523563881 21.6897538081
Cu 21.6897538081 10.8448769041 25.3047127762
Cu 21.6897538081 12.6523563881 27.1121922602
Cu 23.4972332921 10.8448769041 27.1121922602
Cu 23.4972332921 12.6523563881 25.3047127762
Cu 21.6897538081 14.4598358721 0.0000000000
Cu 21.6897538081 16.2673153561 1.8074794840
Cu 23.4972332921 14.4598358721 1.8074794840
Cu 23.4972332921 16.2673153561 0.0000000000
Cu 21.6897538081 14.4598358721 3.6149589680
Cu 21.6897538081 16.2673153561 5.4224384520
Cu 23.4972332921 14.4598358721 5.4224384520
Cu 23.4972332921 16.2673153561 3.6149589680
Cu 21.6897538081 14.4598358721 7.2299179360
Cu 21.6897538081 16.2673153561 9.0373974201
Cu 23.4972332921 14.4598358721 9.0373974201
Cu 23.4972332921 16.2673153561 7.2299179360
Cu 21.6897538081 14.4598358721 10.8448769041
Cu 21.6897538081 16.2673153561 12.6523563881
Cu 23.4972332921 14.4598358721 12.6523563881
Cu 23.4972332921 16.2673153561 10.8448769041
Cu 21.6897538081 14.4598358721 14.4598358721
Cu 21.6897538081 16.2673153561 16.2673153561
Cu 23.4972332921 14.4598358721 16.2673153561
Cu 23.4972332921 16.2673153561 14.4598358721
Cu 21.6897538081 14.4598358721 18.0747948401
Cu 21.6897538081 16.2673153561 19.8822743241
Cu 23.4972332921 14.4598358721 19.8822743241
Cu 23.4972332921 16.2673153561 18.0747948401
Cu 21.6897538081 14.4598358721 21.6897538081
Cu 21.6897538081 16.2673153561 23.4972332921
Cu 23.4972332921 14.4598358721 23.4972332921
Cu 23.4972332921 16.2673153561 21.6897538081
Cu 21.6897538081 14.4598358721 25.3047127762
Cu 21.6897538081 16.2673153561 27.1121922602
Cu 23.4972332921 14.4598358721 27.1121922602
Cu 23.4972332921 16.2673153561 25.3047127762
Cu 21.6897538081 18.0747948401 0.0000000000
Cu 21.6897538081 19.8822743241 1.8074794840
Cu 23.4972332921 18.0747948401 1.8074794840
Cu 23.4972332921 19.8822743241 0.0000000000
Cu 21.6897538081 18.0747948401 3.6149589680
Cu 21.6897538081 19.8822743241 5.4224384520
Cu 23.4972332921 18.0747948401 5.4224384520
Cu 23.4972332921 19.8822743241 3.6149589680
Cu 21.6897538081 18.0747948401 7.2299179360
Cu 21.6897538081 19.8822743241 9.0373974201
Cu 23.4972332921 18.0747948401 9.0373974201
Cu 23.4972332921 19.8822743241 7.2299179360
Cu 21.6897538081 18.0747948401 10.8448769041
Cu 21.6897538081 19.8822743241 12.6523563881
Cu 23.4972332921 18.0747948401 12.6523563881
Cu 23.4972332921 19.8822743241 10.8448769041
Cu 21.6897538081 18.0747948401 14.4598358721
Cu 21.6897538081 19.8822743241 16.2673153561
Cu 23.4972332921 18.0747948401 16.2673153561
Cu 23.4972332921 19.8822743241 14.4598358721
Cu 21.6897538081 18.0747948401 18.0747948401
Cu 21.6897538081 19.8822743241 19.8822743241
Cu 23.4972332921 18.0747948401 19.8822743241
Cu 23.4972332921 19.8822743241 18.0747948401
Cu 21.6897538081 18.0747948401 21.6897538081
Cu 21.6897538081 19.8822743241 23.4972332921
Cu 23.4972332921 18.0747948401 23.4972332921
Cu 23.4972332921 19.8822743241 21.6897538081
Cu 21.6897538081 18.0747948401 25.3047127762
Cu 21.6897538081 19.8822743241 27.1121922602
Cu 23.4972332921 18.0747948401 27.1121922602
Cu 23.4972332921 19.8822743241 25.3047127762
Cu 21.6897538081 21.6897538081 0.0000000000
Cu 21.6897538081 23.4972332921 1.8074794840
Cu 23.4972332921 21.6897538081 1.8074794840
Cu 23.4972332921 23.4972332921 0.0000000000
Cu 21.6897538081 21.6897538081 3.6149589680
Cu 21.6897538081 23.4972332921 5.4224384520
Cu 23.4972332921 21.6897538081 5.4224384520
Cu 23.4972332921 23.4972332921 3.6149589680
Cu 21.6897538081 21.6897538081 7.2299179360
Cu 21.6897538081 23.4972332921 9.0373974201
Cu 23.4972332921 21.6897538081 9.0373974201
Cu 23.4972332921 23.4972332921 7.2299179360
Cu 21.6897538081 21.6897538081 10.8448769041
Cu 21.6897538081 23.4972332921 12.6523563881
Cu 23.4972332921 21.6897538081 12.6523563881
Cu 23.4972332921 23.4972332921 10.8448769041
Cu 21.6897538081 21.6897538081 14.4598358721
Cu 21.6897538081 23.4972332921 16.2673153561
Cu 23.4972332921 21.6897538081 16.2673153561
Cu 23.4972332921 23.4972332921 14.4598358721
Cu 21.6897538081 21.6897538081 18.0747948401
Cu 21.6897538081 23.4972332921 19.8822743241
Cu 23.4972332921 21.6897538081 19.8822743241
Cu 23.4972332921 23.4972332921 18.0747948401
Cu 21.6897538081 21.6897538081 21.6897538081
Cu 21.6897538081 23.4972332921 23.4972332921
Cu 23.4972332921 21.6897538081 23.4972332921
Cu 23.4972332921 23.4972332921 21.6897538081
Cu 21.6897538081 21.6897538081 25.3047127762
Cu 21.6897538081 23.4972332921 27.1121922602
Cu 23.4972332921 21.6897538081 27.1121922602
Cu 23.4972332921 23.4972332921 25.3047127762
Cu 21.6897538081 25.3047127762 0.0000000000
Cu 21.6897538081 27.1121922602 1.8074794840
Cu 23.4972332921 25.3047127762 1.8074794840
Cu 23.4972332921 27.1121922602 0.0000000000
Cu 21.6897538081 25.3047127762 3.6149589680
Cu 21.6897538081 27.1121922602 5.4224384520
Cu 23.4972332921 25.3047127762 5.4224384520
Cu 23.4972332921 27.1121922602 3.6149589680
Cu 21.6897538081 25.3047127762 7.2299179360
Cu 21.6897538081 27.1121922602 9.0373974201
Cu 23.4972332921 25.3047127762 9.0373974201
Cu 23.4972332921 27.1121922602 7.2299179360
Cu 21.6897538081 25.3047127762 10.8448769041
Cu 21.6897538081 27.1121922602 12.6523563881
Cu 23.4972332921 25.3047127762 12.6523563881
Cu 23.4972332921 27.1121922602 10.8448769041
Cu 21.6897538081 25.3047127762 14.4598358721
Cu 21.6897538081 27.1121922602 16.2673153561
Cu 23.4972332921 25.3047127762 16.2673153561
Cu 23.4972332921 27.1121922602 14.4598358721
Cu 21.6897538081 25.3047127762 18.0747948401
Cu 21.6897538081 27.1121922602 19.8822743241
Cu 23.4972332921 25.3047127762 19.8822743241
Cu 23.4972332921 27.1121922602 18.0747948401
Cu 21.6897538081 25.3047127762 21.6897538081
Cu 21.6897538081 27.1121922602 23.4972332921
Cu 23.4972332921 25.3047127762 23.4972332921
Cu 23.4972332921 27.1121922602 21.6897538081
Cu 21.6897538081 25.3047127762 25.3047127762
Cu 21.6897538081 27.1121922602 27.1121922602
Cu 23.4972332921 25.3047127762 27.1121922602
Cu 23.4972332921 27.1121922602 25.3047127762
Cu 25.3047127762 0.0000000000 0.0000000000
Cu 25.3047127762 1.8074794840 1.8074794840
Cu 27.1121922602 0.0000000000 1.8074794840
Cu 27.1121922602 1.8074794840 0.0000000000
Cu 25.3047127762 0.0000000000 3.6149589680
Cu 25.3047127762 1.8074794840 5.4224384520
Cu 27.1121922602 0.0000000000 5.4224384520
Cu 27.1121922602 1.8074794840 3.6149589680
Cu 25.3047127762 0.0000000000 7.2299179360
Cu 25.3047127762 1.8074794840 9.0373974201
Cu 27.1121922602 0.0000000000 9.0373974201
Cu 27.1121922602 1.8074794840 7.2299179360
Cu 25.3047127762 0.0000000000 10.8448769041
Cu 25.3047127762 1.8074794840 12.6523563881
Cu 27.1121922602 0.0000000000 12.6523563881
Cu 27.1121922602 1.8074794840 10.8448769041
Cu 25.3047127762 0.0000000000 14.4598358721
Cu 25.3047127762 1.8074794840 16.2673153561
Cu 27.1121922602 0.0000000000 16.2673153561
Cu 27.1121922602 1.8074794840 14.4598358721
Cu 25.3047127762 0.0000000000 18.0747948401
Cu 25.3047127762 1.8074794840 19.8822743241
Cu 27.1121922602 0.0000000000 19.8822743241
Cu 27.1121922602 1.8074794840 18.0747948401
Cu 25.3047127762 0.0000000000 21.6897538081
Cu 25.3047127762 1.8074794840 23.4972332921
Cu 27.1121922602 0.0000000000 23.4972332921
Cu 27.1121922602 1.8074794840 21.6897538081
Cu 25.3047127762 0.0000000000 25.3047127762
Cu 25.3047127762 1.8074794840 27.1121922602
Cu 27.1121922602 0.0000000000 27.1121922602
Cu 27.1121922602 1.8074794840 25.3047127762
Cu 25.3047127762 3.6149589680 0.0000000000
Cu 25.3047127762 5.4224384520 1.8074794840
Cu 27.1121922602 3.6149589680 1.8074794840
Cu 27.1121922602 5.4224384520 0.0000000000
Cu 25.3047127762 3.6149589680 3.6149589680
Cu 25.3047127762 5.4224384520 5.4224384520
Cu 27.1121922602 3.6149589680 5.4224384520
Cu 27.1121922602 5.4224384520 3.6149589680
Cu 25.3047127762 3.6149589680 7.2299179360
Cu 25.3047127762 5.4224384520 9.0373974201
Cu 27.1121922602 3.6149589680 9.0373974201
Cu 27.1121922602 5.4224384520 7.2299179360
Cu 25.3047127762 3.6149589680 10.8448769041
Cu 25.3047127762 5.4224384520 12.6523563881
Cu 27.1121922602 3.6149589680 12.6523563881
Cu 27.1121922602 5.4224384520 10.8448769041
Cu 25.3047127762 3.6149589680 14.4598358721
Cu 25.3047127762 5.4224384520 16.2673153561
Cu 27.1121922602 3.6149589680 16.2673153561
Cu 27.1121922602 5.4224384520 14.4598358721
Cu 25.3047127762 3.6149589680 18.0747948401
Cu 25.3047127762 5.4224384520 19.8822743241
Cu 27.1121922602 3.6149589680 19.8822743241
Cu 27.1121922602 5.4224384520 18.0747948401
Cu 25.3047127762 3.6149589680 21.6897538081
Cu 25.3047127762 5.4224384520 23.4972332921
Cu 27.1121922602 3.6149589680 23.4972332921
Cu 27.1121922602 5.4224384520 21.6897538081
Cu 25.3047127762 3.6149589680 25.3047127762
Cu 25.3047127762 5.4224384520 27.1121922602
Cu 27.1121922602 3.6149589680 27.1121922602
Cu 27.1121922602 5.4224384520 25.3047127762
Cu 25.3047127762 7.2299179360 0.0000000000
Cu 25.3047127762 9.0373974201 1.8074794840
Cu 27.1121922602 7.2299179360 1.8074794840
Cu 27.1121922602 9.0373974201 0.0000000000
Cu 25.3047127762 7.2299179360 3.6149589680
Cu 25.3047127762 9.0373974201 5.4224384520
Cu 27.1121922602 7.2299179360 5.4224384520
Cu 27.1121922602 9.0373974201 3.6149589680
Cu 25.3047127762 7.2299179360 7.2299179360
Cu 25.3047127762 9.0373974201 9.0373974201
Cu 27.1121922602 7.2299179360 9.0373974201
Cu 27.1121922602 9.0373974201 7.2299179360
Cu 25.3047127762 7.2299179360 10.8448769041
Cu 25.3047127762 9.0373974201 12.6523563881
Cu 27.1121922602 7.2299179360 12.6523563881
Cu 27.1121922602 9.0373974201 10.8448769041
Cu 25.3047127762 7.2299179360 14.4598358721
Cu 25.3047127762 9.0373974201 16.2673153561
Cu 27.1121922602 7.2299179360 16.2673153561
Cu 27.1121922602 9.0373974201 14.4598358721
Cu 25.3047127762 7.2299179360 18.0747948401
Cu 25.3047127762 9.0373974201 19.8822743241
Cu 27.1121922602 7.2299179360 19.8822743241
Cu 27.1121922602 9.0373974201 18.0747948401
Cu 25.3047127762 7.2299179360 21.6897538081
Cu 25.3047127762 9.0373974201 23.4972332921
Cu 27.1121922602 7.2299179360 23.4972332921
Cu 27.1121922602 9.0373974201 21.6897538081
Cu 25.3047127762 7.2299179360 25.3047127762
Cu 25.3047127762 9.0373974201 27.1121922602
Cu 27.1121922602 7.2299179360 27.1121922602
Cu 27.1121922602 9.0373974201 25.3047127762
Cu 25.3047127762 10.8448769041 0.0000000000
Cu 25.3047127762 12.6523563881 1.8074794840
Cu 27.1121922602 10.8448769041 1.8074794840
Cu 27.1121922602 12.6523563881 0.0000000000
Cu 25.3047127762 10.8448769041 3.6149589680
Cu 25.3047127762 12.6523563881 5.4224384520
Cu 27.1121922602 10.8448769041 5.4224384520
Cu 27.1121922602 12.6523563881 3.6149589680
Cu 25.3047127762 10.8448769041 7.2299179360
Cu 25.3047127762 12.6523563881 9.0373974201
Cu 27.1121922602 10.8448769041 9.0373974201
Cu 27.1121922602 12.6523563881 7.2299179360
Cu 25.3047127762 10.8448769041 10.8448769041
Cu 25.3047127762 12.6523563881 12.6523563881
Cu 27.1121922602 10.8448769041 12.6523563881
Cu 27.1121922602 12.6523563881 10.8448769041
Cu 25.3047127762 10.8448769041 14.4598358721
Cu 25.3047127762 12.6523563881 16.2673153561
Cu 27.1121922602 10.8448769041 16.2673153561
Cu 27.1121922602 12.6523563881 14.4598358721
Cu 25.3047127762 10.8448769041 18.0747948401
Cu 25.3047127762 12.6523563881 19.8822743241
Cu 27.1121922602 10.8448769041 19.8822743241
Cu 27.1121922602 12.6523563881 18.0747948401
Cu 25.3047127762 10.8448769041 21.6897538081
Cu 25.3047127762 12.6523563881 23.4972332921
Cu 27.1121922602 10.8448769041 23.4972332921
Cu 27.1121922602 12.6523563881 21.6897538081
Cu 25.3047127762 10.8448769041 25.3047127762
Cu 25.3047127762 12.6523563881 27.1121922602
Cu 27.1121922602 10.8448769041 27.1121922602
Cu 27.1121922602 12.6523563881 25.3047127762
Cu 25.3047127762 14.4598358721 0.0000000000
Cu 25.3047127762 16.2673153561 1.8074794840
Cu 27.1121922602 14.4598358721 1.8074794840
Cu 27.1121922602 16.2673153561 0.0000000000
Cu 25.3047127762 14.4598358721 3.6149589680
Cu 25.3047127762 16.2673153561 5.4224384520
Cu 27.1121922602 14.4598358721 5.4224384520
Cu 27.1121922602 16.2673153561 3.6149589680
Cu 25.3047127762 14.4598358721 7.2299179360
Cu 25.3047127762 16.2673153561 9.0373974201
Cu 27.1121922602 14.4598358721 9.0373974201
Cu 27.1121922602 16.2673153561 7.2299179360
Cu 25.3047127762 14.4598358721 10.8448769041
Cu 25.3047127762 16.2673153561 12.6523563881
Cu 27.1121922602 14.4598358721 12.6523563881
Cu 27.1121922602 16.2673153561 10.8448769041
Cu 25.3047127762 14.4598358721 14.4598358721
Cu 25.3047127762 16.2673153561 16.2673153561
Cu 27.1121922602 14.4598358721 16.2673153561
Cu 27.1121922602 16.2673153561 14.4598358721
Cu 25.3047127762 14.4598358721 18.0747948401
Cu 25.3047127762 16.2673153561 19.8822743241
Cu 27.1121922602 14.4598358721 19.8822743241
Cu 27.1121922602 16.2673153561 18.0747948401
Cu 25.3047127762 14.4598358721 21.6897538081
Cu 25.3047127762 16.2673153561 23.4972332921
Cu 27.1121922602 14.4598358721 23.4972332921
Cu 27.1121922602 16.2673153561 21.6897538081
Cu 25.3047127762 14.4598358721 25.3047127762
Cu 25.3047127762 16.2673153561 27.1121922602
Cu 27.1121922602 14.4598358721 27.1121922602
Cu 27.1121922602 16.2673153561 25.3047127762
Cu 25.3047127762 18.0747948401 0.0000000000
Cu 25.3047127762 19.8822743241 1.8074794840
Cu 27.1121922602 18.0747948401 1.8074794840
Cu 27.1121922602 19.8822743241 0.0000000000
Cu 25.3047127762 18.0747948401 3.6149589680
Cu 25.3047127762 19.8822743241 5.4224384520
Cu 27.1121922602 18.0747948401 5.4224384520
Cu 27.1121922602 19.8822743241 3.6149589680
Cu 25.3047127762 18.0747948401 7.2299179360
Cu 25.3047127762 19.8822743241 9.0373974201
Cu 27.1121922602 18.0747948401 9.0373974201
Cu 27.1121922602 19.8822743241 7.2299179360
Cu 25.3047127762 18.0747948401 10.8448769041
Cu 25.3047127762 19.8822743241 12.6523563881
Cu 27.1121922602 18.0747948401 12.6523563881
Cu 27.1121922602 19.8822743241 10.8448769041
Cu 25.3047127762 18.0747948401 14.4598358721
Cu 25.3047127762 19.8822743241 16.2673153561
Cu 27.1121922602 18.0747948401 16.2673153561
Cu 27.1121922602 19.8822743241 14.4598358721
Cu 25.3047127762 18.0747948401 18.0747948401
Cu 25.3047127762 19.8822743241 19.8822743241
Cu 27.1121922602 18.0747948401 19.8822743241
Cu 27.1121922602 19.8822743241 18.0747948401
Cu 25.3047127762 18.0747948401 21.6897538081
Cu 25.3047127762 19.8822743241 23.4972332921
Cu 27.1121922602 18.0747948401 23.4972332921
Cu 27.1121922602 19.8822743241 21.6897538081
Cu 25.3047127762 18.0747948401 25.3047127762
Cu 25.3047127762 19.8822743241 27.1121922602
Cu 27.1121922602 18.0747948401 27.1121922602
Cu 27.1121922602 19.8822743241 25.3047127762
Cu 25.3047127762 21.6897538081 0.0000000000
Cu 25.3047127762 23.4972332921 1.8074794840
Cu 27.1121922602 21.6897538081 1.8074794840
Cu 27.1121922602 23.4972332921 0.0000000000
Cu 25.3047127762 21.6897538081 3.6149589680
Cu 25.3047127762 23.4972332921 5.4224384520
Cu 27.1121922602 21.6897538081 5.4224384520
Cu 27.1121922602 23.4972332921 3.6149589680
Cu 25.3047127762 21.6897538081 7.2299179360
Cu 25.3047127762 23.4972332921 9.0373974201
Cu 27.1121922602 21.6897538081 9.0373974201
Cu 27.1121922602 23.4972332921 7.2299179360
Cu 25.3047127762 21.6897538081 10.8448769041
Cu 25.3047127762 23.4972332921 12.6523563881
Cu 27.1121922602 21.6897538081 12.6523563881
Cu 27.1121922602 23.4972332921 10.8448769041
Cu 25.3047127762 21.6897538081 14.4598358721
Cu 25.3047127762 23.4972332921 16.2673153561
Cu 27.1121922602 21.6897538081 16.2673153561
Cu 27.1121922602 23.4972332921 14.4598358721
Cu 25.3047127762 21.6897538081 18.0747948401
Cu 25.3047127762 23.4972332921 19.8822743241
Cu 27.1121922602 21.6897538081 19.8822743241
Cu 27.1121922602 23.4972332921 18.0747948401
Cu 25.3047127762 21.6897538081 21.6897538081
Cu 25.3047127762 23.4972332921 23.4972332921
Cu 27.1121922602 21.6897538081 23.4972332921
Cu 27.1121922602 23.4972332921 21.6897538081
Cu 25.3047127762 21.6897538081 25.3047127762
Cu 25.3047127762 23.4972332921 27.1121922602
Cu 27.1121922602 21.6897538081 27.1121922602
Cu 27.1121922602 23.4972332921 25.3047127762
Cu 25.3047127762 25.3047127762 0.0000000000
Cu 25.3047127762 27.1121922602 1.8074794840
Cu 27.1121922602 25.3047127762 1.8074794840
Cu 27.1121922602 27.1121922602 0.0000000000
Cu 25.3047127762 25.3047127762 3.6149589680
Cu 25.3047127762 27.1121922602 5.4224384520
Cu 27.1121922602 25.3047127762 5.4224384520
Cu 27.1121922602 27.1121922602 3.6149589680
Cu 25.3047127762 25.3047127762 7.2299179360
Cu 25.3047127762 27.1121922602 9.0373974201
Cu 27.1121922602 25.3047127762 9.0373974201
Cu 27.1121922602 27.1121922602 7.2299179360
Cu 25.3047127762 25.3047127762 10.8448769041
Cu 25.3047127762 27.1121922602 12.6523563881
Cu 27.1121922602 25.3047127762 12.6523563881
Cu 27.1121922602 27.1121922602 10.8448769041
Cu 25.3047127762 25.3047127762 14.4598358721
Cu 25.3047127762 27.1121922602 16.2673153561
Cu 27.1121922602 25.3047127762 16.2673153561
Cu 27.1121922602 27.1121922602 14.4598358721
Cu 25.3047127762 25.3047127762 18.0747948401
Cu 25.3047127762 27.1121922602 19.8822743241
Cu 27.1121922602 25.3047127762 19.8822743241
Cu 27.1121922602 27.1121922602 18.0747948401
Cu 25.3047127762 25.3047127762 21.6897538081
Cu 25.3047127762 27.1121922602 23.4972332921
Cu 27.1121922602 25.3047127762 23.4972332921
Cu 27.1121922602 27.1121922602 21.6897538081
Cu 25.3047127762 25.3047127762 25.3047127762
Cu 25.3047127762 27.1121922602 27.1121922602
Cu 27.1121922602 25.3047127762 27.1121922602
Cu 27.1121922602 27.1121922602 25.3047127762
