12
Lattice="5.233649 0.0 0.0 0.0 5.26846 0.0 -0.946016 0.0 5.335254" Properties=species:S:1:pos:R:3 pbc="T T T"
Zr 1.24548214 5.03569944 1.12176917
Zr 0.77247414 2.86699056 3.78939617
Zr 3.51515886 2.40146944 1.54585783
Zr 3.04215086 0.23276056 4.21348483
O 4.77677948 0.94926059 0.77567657
O 4.30377148 1.68496941 3.44330357
O 1.44552647 1.34700824 5.21821987
O 2.36909853 3.98123824 2.78466113
O 1.91853447 1.28722176 2.55059287
O 2.84210653 3.92145176 0.11703413
O -0.01613848 3.58349059 1.89195043
O -0.48914648 4.31919941 4.55957743
