2000
Lattice="31.6484942361 0 0 0 31.6484942361 0 0 0 31.6484942361" Properties=species:S:1:pos:R:3 pbc="T T T" case=zhou_w_bcc
W 0.0000000000 0.0000000000 0.0000000000
W 1.5824247118 1.5824247118 1.5824247118
W 0.0000000000 0.0000000000 3.1648494236
W 1.5824247118 1.5824247118 4.7472741354
W 0.0000000000 0.0000000000 6.3296988472
W 1.5824247118 1.5824247118 7.9121235590
W 0.0000000000 0.0000000000 9.4945482708
W 1.5824247118 1.5824247118 11.0769729826
W 0.0000000000 0.0000000000 12.6593976944
W 1.5824247118 1.5824247118 14.2418224063
W 0.0000000000 0.0000000000 15.8242471181
W 1.5824247118 1.5824247118 17.4066718299
W 0.0000000000 0.0000000000 18.9890965417
W 1.5824247118 1.5824247118 20.5715212535
W 0.0000000000 0.0000000000 22.1539459653
W 1.5824247118 1.5824247118 23.7363706771
W 0.0000000000 0.0000000000 25.3187953889
W 1.5824247118 1.5824247118 26.9012201007
W 0.0000000000 0.0000000000 28.4836448125
W 1.5824247118 1.5824247118 30.0660695243
W 0.0000000000 3.1648494236 0.0000000000
W 1.5824247118 4.7472741354 1.5824247118
W 0.0000000000 3.1648494236 3.1648494236
W 1.5824247118 4.7472741354 4.7472741354
W 0.0000000000 3.1648494236 6.3296988472
W 1.5824247118 4.7472741354 7.9121235590
W 0.0000000000 3.1648494236 9.4945482708
W 1.5824247118 4.7472741354 11.0769729826
W 0.0000000000 3.1648494236 12.6593976944
W 1.5824247118 4.7472741354 14.2418224063
W 0.0000000000 3.1648494236 15.8242471181
W 1.5824247118 4.7472741354 17.4066718299
W 0.0000000000 3.1648494236 18.9890965417
W 1.5824247118 4.7472741354 20.5715212535
W 0.0000000000 3.1648494236 22.1539459653
W 1.5824247118 4.7472741354 23.7363706771
W 0.0000000000 3.1648494236 25.3187953889
W 1.5824247118 4.7472741354 26.9012201007
W 0.0000000000 3.1648494236 28.4836448125
W 1.5824247118 4.7472741354 30.0660695243
W 0.0000000000 6.3296988472 0.0000000000
W 1.5824247118 7.9121235590 1.5824247118
W 0.0000000000 6.3296988472 3.1648494236
W 1.5824247118 7.9121235590 4.7472741354
W 0.0000000000 6.3296988472 6.3296988472
W 1.5824247118 7.9121235590 7.9121235590
W 0.0000000000 6.3296988472 9.4945482708
W 1.5824247118 7.9121235590 11.0769729826
W 0.0000000000 6.3296988472 12.6593976944
W 1.5824247118 7.9121235590 14.2418224063
W 0.0000000000 6.3296988472 15.8242471181
W 1.5824247118 7.9121235590 17.4066718299
W 0.0000000000 6.3296988472 18.9890965417
W 1.5824247118 7.9121235590 20.5715212535
W 0.0000000000 6.3296988472 22.1539459653
W 1.5824247118 7.9121235590 23.7363706771
W 0.0000000000 6.3296988472 25.3187953889
W 1.5824247118 7.9121235590 26.9012201007
W 0.0000000000 6.3296988472 28.4836448125
W 1.5824247118 7.9121235590 30.0660695243
W 0.0000000000 9.4945482708 0.0000000000
W 1.5824247118 11.0769729826 1.5824247118
W 0.0000000000 9.4945482708 3.1648494236
W 1.5824247118 11.0769729826 4.7472741354
W 0.0000000000 9.4945482708 6.3296988472
W 1.5824247118 11.0769729826 7.9121235590
W 0.0000000000 9.4945482708 9.4945482708
W 1.5824247118 11.0769729826 11.0769729826
W 0.0000000000 9.4945482708 12.6593976944
W 1.5824247118 11.0769729826 14.2418224063
W 0.0000000000 9.4945482708 15.8242471181
W 1.5824247118 11.0769729826 17.4066718299
W 0.0000000000 9.4945482708 18.9890965417
W 1.5824247118 11.0769729826 20.5715212535
W 0.0000000000 9.4945482708 22.1539459653
W 1.5824247118 11.0769729826 23.7363706771
W 0.0000000000 9.4945482708 25.3187953889
W 1.5824247118 11.0769729826 26.9012201007
W 0.0000000000 9.4945482708 28.4836448125
W 1.5824247118 11.0769729826 30.0660695243
W 0.0000000000 12.6593976944 0.0000000000
W 1.5824247118 14.2418224063 1.5824247118
W 0.0000000000 12.6593976944 3.1648494236
W 1.5824247118 14.2418224063 4.7472741354
W 0.0000000000 12.6593976944 6.3296988472
W 1.5824247118 14.2418224063 7.9121235590
W 0.0000000000 12.6593976944 9.4945482708
W 1.5824247118 14.2418224063 11.0769729826
W 0.0000000000 12.6593976944 12.6593976944
W 1.5824247118 14.2418224063 14.2418224063
W 0.0000000000 12.6593976944 15.8242471181
W 1.5824247118 14.2418224063 17.4066718299
W 0.0000000000 12.6593976944 18.9890965417
W 1.5824247118 14.2418224063 20.5715212535
W 0.0000000000 12.6593976944 22.1539459653
W 1.5824247118 14.2418224063 23.7363706771
W 0.0000000000 12.6593976944 25.3187953889
W 1.5824247118 14.2418224063 26.9012201007
W 0.0000000000 12.6593976944 28.4836448125
W 1.5824247118 14.2418224063 30.0660695243
W 0.0000000000 15.8242471181 0.0000000000
W 1.5824247118 17.4066718299 1.5824247118
W 0.0000000000 15.8242471181 3.1648494236
W 1.5824247118 17.4066718299 4.7472741354
W 0.0000000000 15.8242471181 6.3296988472
W 1.5824247118 17.4066718299 7.9121235590
W 0.0000000000 15.8242471181 9.4945482708
W 1.5824247118 17.4066718299 11.0769729826
W 0.0000000000 15.8242471181 12.6593976944
W 1.5824247118 17.4066718299 14.2418224063
W 0.0000000000 15.8242471181 15.8242471181
W 1.5824247118 17.4066718299 17.4066718299
W 0.0000000000 15.8242471181 18.9890965417
W 1.5824247118 17.4066718299 20.5715212535
W 0.0000000000 15.8242471181 22.1539459653
W 1.5824247118 17.4066718299 23.7363706771
W 0.0000000000 15.8242471181 25.3187953889
W 1.5824247118 17.4066718299 26.9012201007
W 0.0000000000 15.8242471181 28.4836448125
W 1.5824247118 17.4066718299 30.0660695243
W 0.0000000000 18.9890965417 0.0000000000
W 1.5824247118 20.5715212535 1.5824247118
W 0.0000000000 18.9890965417 3.1648494236
W 1.5824247118 20.5715212535 4.7472741354
W 0.0000000000 18.9890965417 6.3296988472
W 1.5824247118 20.5715212535 7.9121235590
W 0.0000000000 18.9890965417 9.4945482708
W 1.5824247118 20.5715212535 11.0769729826
W 0.0000000000 18.9890965417 12.6593976944
W 1.5824247118 20.5715212535 14.2418224063
W 0.0000000000 18.9890965417 15.8242471181
W 1.5824247118 20.5715212535 17.4066718299
W 0.0000000000 18.9890965417 18.9890965417
W 1.5824247118 20.5715212535 20.5715212535
W 0.0000000000 18.9890965417 22.1539459653
W 1.5824247118 20.5715212535 23.7363706771
W 0.0000000000 18.9890965417 25.3187953889
W 1.5824247118 20.5715212535 26.9012201007
W 0.0000000000 18.9890965417 28.4836448125
W 1.5824247118 20.5715212535 30.0660695243
W 0.0000000000 22.1539459653 0.0000000000
W 1.5824247118 23.7363706771 1.5824247118
W 0.0000000000 22.1539459653 3.1648494236
W 1.5824247118 23.7363706771 4.7472741354
W 0.0000000000 22.1539459653 6.3296988472
W 1.5824247118 23.7363706771 7.9121235590
W 0.0000000000 22.1539459653 9.4945482708
W 1.5824247118 23.7363706771 11.0769729826
W 0.0000000000 22.1539459653 12.6593976944
W 1.5824247118 23.7363706771 14.2418224063
W 0.0000000000 22.1539459653 15.8242471181
W 1.5824247118 23.7363706771 17.4066718299
W 0.0000000000 22.1539459653 18.9890965417
W 1.5824247118 23.7363706771 20.5715212535
W 0.0000000000 22.1539459653 22.1539459653
W 1.5824247118 23.7363706771 23.7363706771
W 0.0000000000 22.1539459653 25.3187953889
W 1.5824247118 23.7363706771 26.9012201007
W 0.0000000000 22.1539459653 28.4836448125
W 1.5824247118 23.7363706771 30.0660695243
W 0.0000000000 25.3187953889 0.0000000000
W 1.5824247118 26.9012201007 1.5824247118
W 0.0000000000 25.3187953889 3.1648494236
W 1.5824247118 26.9012201007 4.7472741354
W 0.0000000000 25.3187953889 6.3296988472
W 1.5824247118 26.9012201007 7.9121235590
W 0.0000000000 25.3187953889 9.4945482708
W 1.5824247118 26.9012201007 11.0769729826
W 0.0000000000 25.3187953889 12.6593976944
W 1.5824247118 26.9012201007 14.2418224063
W 0.0000000000 25.3187953889 15.8242471181
W 1.5824247118 26.9012201007 17.4066718299
W 0.0000000000 25.3187953889 18.9890965417
W 1.5824247118 26.9012201007 20.5715212535
W 0.0000000000 25.3187953889 22.1539459653
W 1.5824247118 26.9012201007 23.7363706771
W 0.0000000000 25.3187953889 25.3187953889
W 1.5824247118 26.9012201007 26.9012201007
W 0.0000000000 25.3187953889 28.4836448125
W 1.5824247118 26.9012201007 30.0660695243
W 0.0000000000 28.4836448125 0.0000000000
W 1.5824247118 30.0660695243 1.5824247118
W 0.0000000000 28.4836448125 3.1648494236
W 1.5824247118 30.0660695243 4.7472741354
W 0.0000000000 28.4836448125 6.3296988472
W 1.5824247118 30.0660695243 7.9121235590
W 0.0000000000 28.4836448125 9.4945482708
W 1.5824247118 30.0660695243 11.0769729826
W 0.0000000000 28.4836448125 12.6593976944
W 1.5824247118 30.0660695243 14.2418224063
W 0.0000000000 28.4836448125 15.8242471181
W 1.5824247118 30.0660695243 17.4066718299
W 0.0000000000 28.4836448125 18.9890965417
W 1.5824247118 30.0660695243 20.5715212535
W 0.0000000000 28.4836448125 22.1539459653
W 1.5824247118 30.0660695243 23.7363706771
W 0.0000000000 28.4836448125 25.3187953889
W 1.5824247118 30.0660695243 26.9012201007
W 0.0000000000 28.4836448125 28.4836448125
W 1.5824247118 30.0660695243 30.0660695243
W 3.1648494236 0.0000000000 0.0000000000
W 4.7472741354 1.5824247118 1.5824247118
W 3.1648494236 0.0000000000 3.1648494236
W 4.7472741354 1.5824247118 4.7472741354
W 3.1648494236 0.0000000000 6.3296988472
W 4.7472741354 1.5824247118 7.9121235590
W 3.1648494236 0.0000000000 9.4945482708
W 4.7472741354 1.5824247118 11.0769729826
W 3.1648494236 0.0000000000 12.6593976944
W 4.7472741354 1.5824247118 14.2418224063
W 3.1648494236 0.0000000000 15.8242471181
W 4.7472741354 1.5824247118 17.4066718299
W 3.1648494236 0.0000000000 18.9890965417
W 4.7472741354 1.5824247118 20.5715212535
W 3.1648494236 0.0000000000 22.1539459653
W 4.7472741354 1.5824247118 23.7363706771
W 3.1648494236 0.0000000000 25.3187953889
W 4.7472741354 1.5824247118 26.9012201007
W 3.1648494236 0.0000000000 28.4836448125
W 4.7472741354 1.5824247118 30.0660695243
W 3.1648494236 3.1648494236 0.0000000000
W 4.7472741354 4.7472741354 1.5824247118
W 3.1648494236 3.1648494236 3.1648494236
W 4.7472741354 4.7472741354 4.7472741354
W 3.1648494236 3.1648494236 6.3296988472
W 4.7472741354 4.7472741354 7.9121235590
W 3.1648494236 3.1648494236 9.4945482708
W 4.7472741354 4.7472741354 11.0769729826
W 3.1648494236 3.1648494236 12.6593976944
W 4.7472741354 4.7472741354 14.2418224063
W 3.1648494236 3.1648494236 15.8242471181
W 4.7472741354 4.7472741354 17.4066718299
W 3.1648494236 3.1648494236 18.9890965417
W 4.7472741354 4.7472741354 20.5715212535
W 3.1648494236 3.1648494236 22.1539459653
W 4.7472741354 4.7472741354 23.7363706771
W 3.1648494236 3.1648494236 25.3187953889
W 4.7472741354 4.7472741354 26.9012201007
W 3.1648494236 3.1648494236 28.4836448125
W 4.7472741354 4.7472741354 30.0660695243
W 3.1648494236 6.3296988472 0.0000000000
W 4.7472741354 7.9121235590 1.5824247118
W 3.1648494236 6.3296988472 3.1648494236
W 4.7472741354 7.9121235590 4.7472741354
W 3.1648494236 6.3296988472 6.3296988472
W 4.7472741354 7.9121235590 7.9121235590
W 3.1648494236 6.3296988472 9.4945482708
W 4.7472741354 7.9121235590 11.0769729826
W 3.1648494236 6.3296988472 12.6593976944
W 4.7472741354 7.9121235590 14.2418224063
W 3.1648494236 6.3296988472 15.8242471181
W 4.7472741354 7.9121235590 17.4066718299
W 3.1648494236 6.3296988472 18.9890965417
W 4.7472741354 7.9121235590 20.5715212535
W 3.1648494236 6.3296988472 22.1539459653
W 4.7472741354 7.9121235590 23.7363706771
W 3.1648494236 6.3296988472 25.3187953889
W 4.7472741354 7.9121235590 26.9012201007
W 3.1648494236 6.3296988472 28.4836448125
W 4.7472741354 7.9121235590 30.0660695243
W 3.1648494236 9.4945482708 0.0000000000
W 4.7472741354 11.0769729826 1.5824247118
W 3.1648494236 9.4945482708 3.1648494236
W 4.7472741354 11.0769729826 4.7472741354
W 3.1648494236 9.4945482708 6.3296988472
W 4.7472741354 11.0769729826 7.9121235590
W 3.1648494236 9.4945482708 9.4945482708
W 4.7472741354 11.0769729826 11.0769729826
W 3.1648494236 9.4945482708 12.6593976944
W 4.7472741354 11.0769729826 14.2418224063
W 3.1648494236 9.4945482708 15.8242471181
W 4.7472741354 11.0769729826 17.4066718299
W 3.1648494236 9.4945482708 18.9890965417
W 4.7472741354 11.0769729826 20.5715212535
W 3.1648494236 9.4945482708 22.1539459653
W 4.7472741354 11.0769729826 23.7363706771
W 3.1648494236 9.4945482708 25.3187953889
W 4.7472741354 11.0769729826 26.9012201007
W 3.1648494236 9.4945482708 28.4836448125
W 4.7472741354 11.0769729826 30.0660695243
W 3.1648494236 12.6593976944 0.0000000000
W 4.7472741354 14.2418224063 1.5824247118
W 3.1648494236 12.6593976944 3.1648494236
W 4.7472741354 14.2418224063 4.7472741354
W 3.1648494236 12.6593976944 6.3296988472
W 4.7472741354 14.2418224063 7.9121235590
W 3.1648494236 12.6593976944 9.4945482708
W 4.7472741354 14.2418224063 11.0769729826
W 3.1648494236 12.6593976944 12.6593976944
W 4.7472741354 14.2418224063 14.2418224063
W 3.1648494236 12.6593976944 15.8242471181
W 4.7472741354 14.2418224063 17.4066718299
W 3.1648494236 12.6593976944 18.9890965417
W 4.7472741354 14.2418224063 20.5715212535
W 3.1648494236 12.6593976944 22.1539459653
W 4.7472741354 14.2418224063 23.7363706771
W 3.1648494236 12.6593976944 25.3187953889
W 4.7472741354 14.2418224063 26.9012201007
W 3.1648494236 12.6593976944 28.4836448125
W 4.7472741354 14.2418224063 30.0660695243
W 3.1648494236 15.8242471181 0.0000000000
W 4.7472741354 17.4066718299 1.5824247118
W 3.1648494236 15.8242471181 3.1648494236
W 4.7472741354 17.4066718299 4.7472741354
W 3.1648494236 15.8242471181 6.3296988472
W 4.7472741354 17.4066718299 7.9121235590
W 3.1648494236 15.8242471181 9.4945482708
W 4.7472741354 17.4066718299 11.0769729826
W 3.1648494236 15.8242471181 12.6593976944
W 4.7472741354 17.4066718299 14.2418224063
W 3.1648494236 15.8242471181 15.8242471181
W 4.7472741354 17.4066718299 17.4066718299
W 3.1648494236 15.8242471181 18.9890965417
W 4.7472741354 17.4066718299 20.5715212535
W 3.1648494236 15.8242471181 22.1539459653
W 4.7472741354 17.4066718299 23.7363706771
W 3.1648494236 15.8242471181 25.3187953889
W 4.7472741354 17.4066718299 26.9012201007
W 3.1648494236 15.8242471181 28.4836448125
W 4.7472741354 17.4066718299 30.0660695243
W 3.1648494236 18.9890965417 0.0000000000
W 4.7472741354 20.5715212535 1.5824247118
W 3.1648494236 18.9890965417 3.1648494236
W 4.7472741354 20.5715212535 4.7472741354
W 3.1648494236 18.9890965417 6.3296988472
W 4.7472741354 20.5715212535 7.9121235590
W 3.1648494236 18.9890965417 9.4945482708
W 4.7472741354 20.5715212535 11.0769729826
W 3.1648494236 18.9890965417 12.6593976944
W 4.7472741354 20.5715212535 14.2418224063
W 3.1648494236 18.9890965417 15.8242471181
W 4.7472741354 20.5715212535 17.4066718299
W 3.1648494236 18.9890965417 18.9890965417
W 4.7472741354 20.5715212535 20.5715212535
W 3.1648494236 18.9890965417 22.1539459653
W 4.7472741354 20.5715212535 23.7363706771
W 3.1648494236 18.9890965417 25.3187953889
W 4.7472741354 20.5715212535 26.9012201007
W 3.1648494236 18.9890965417 28.4836448125
W 4.7472741354 20.5715212535 30.0660695243
W 3.1648494236 22.1539459653 0.0000000000
W 4.7472741354 23.7363706771 1.5824247118
W 3.1648494236 22.1539459653 3.1648494236
W 4.7472741354 23.7363706771 4.7472741354
W 3.1648494236 22.1539459653 6.3296988472
W 4.7472741354 23.7363706771 7.9121235590
W 3.1648494236 22.1539459653 9.4945482708
W 4.7472741354 23.7363706771 11.0769729826
W 3.1648494236 22.1539459653 12.6593976944
W 4.7472741354 23.7363706771 14.2418224063
W 3.1648494236 22.1539459653 15.8242471181
W 4.7472741354 23.7363706771 17.4066718299
W 3.1648494236 22.1539459653 18.9890965417
W 4.7472741354 23.7363706771 20.5715212535
W 3.1648494236 22.1539459653 22.1539459653
W 4.7472741354 23.7363706771 23.7363706771
W 3.1648494236 22.1539459653 25.3187953889
W 4.7472741354 23.7363706771 26.9012201007
W 3.1648494236 22.1539459653 28.4836448125
W 4.7472741354 23.7363706771 30.0660695243
W 3.1648494236 25.3187953889 0.0000000000
W 4.7472741354 26.9012201007 1.5824247118
W 3.1648494236 25.3187953889 3.1648494236
W 4.7472741354 26.9012201007 4.7472741354
W 3.1648494236 25.3187953889 6.3296988472
W 4.7472741354 26.9012201007 7.9121235590
W 3.1648494236 25.3187953889 9.4945482708
W 4.7472741354 26.9012201007 11.0769729826
W 3.1648494236 25.3187953889 12.6593976944
W 4.7472741354 26.9012201007 14.2418224063
W 3.1648494236 25.3187953889 15.8242471181
W 4.7472741354 26.9012201007 17.4066718299
W 3.1648494236 25.3187953889 18.9890965417
W 4.7472741354 26.9012201007 20.5715212535
W 3.1648494236 25.3187953889 22.1539459653
W 4.7472741354 26.9012201007 23.7363706771
W 3.1648494236 25.3187953889 25.3187953889
W 4.7472741354 26.9012201007 26.9012201007
W 3.1648494236 25.3187953889 28.4836448125
W 4.7472741354 26.9012201007 30.0660695243
W 3.1648494236 28.4836448125 0.0000000000
W 4.7472741354 30.0660695243 1.5824247118
W 3.1648494236 28.4836448125 3.1648494236
W 4.7472741354 30.0660695243 4.7472741354
W 3.1648494236 28.4836448125 6.3296988472
W 4.7472741354 30.0660695243 7.9121235590
W 3.1648494236 28.4836448125 9.4945482708
W 4.7472741354 30.0660695243 11.0769729826
W 3.1648494236 28.4836448125 12.6593976944
W 4.7472741354 30.0660695243 14.2418224063
W 3.1648494236 28.4836448125 15.8242471181
W 4.7472741354 30.0660695243 17.4066718299
W 3.1648494236 28.4836448125 18.9890965417
W 4.7472741354 30.0660695243 20.5715212535
W 3.1648494236 28.4836448125 22.1539459653
W 4.7472741354 30.0660695243 23.7363706771
W 3.1648494236 28.4836448125 25.3187953889
W 4.7472741354 30.0660695243 26.9012201007
W 3.1648494236 28.4836448125 28.4836448125
W 4.7472741354 30.0660695243 30.0660695243
W 6.3296988472 0.0000000000 0.0000000000
W 7.9121235590 1.5824247118 1.5824247118
W 6.3296988472 0.0000000000 3.1648494236
W 7.9121235590 1.5824247118 4.7472741354
W 6.3296988472 0.0000000000 6.3296988472
W 7.9121235590 1.5824247118 7.9121235590
W 6.3296988472 0.0000000000 9.4945482708
W 7.9121235590 1.5824247118 11.0769729826
W 6.3296988472 0.0000000000 12.6593976944
W 7.9121235590 1.5824247118 14.2418224063
W 6.3296988472 0.0000000000 15.8242471181
W 7.9121235590 1.5824247118 17.4066718299
W 6.3296988472 0.0000000000 18.9890965417
W 7.9121235590 1.5824247118 20.5715212535
W 6.3296988472 0.0000000000 22.1539459653
W 7.9121235590 1.5824247118 23.7363706771
W 6.3296988472 0.0000000000 25.3187953889
W 7.9121235590 1.5824247118 26.9012201007
W 6.3296988472 0.0000000000 28.4836448125
W 7.9121235590 1.5824247118 30.0660695243
W 6.3296988472 3.1648494236 0.0000000000
W 7.9121235590 4.7472741354 1.5824247118
W 6.3296988472 3.1648494236 3.1648494236
W 7.9121235590 4.7472741354 4.7472741354
W 6.3296988472 3.1648494236 6.3296988472
W 7.9121235590 4.7472741354 7.9121235590
W 6.3296988472 3.1648494236 9.4945482708
W 7.9121235590 4.7472741354 11.0769729826
W 6.3296988472 3.1648494236 12.6593976944
W 7.9121235590 4.7472741354 14.2418224063
W 6.3296988472 3.1648494236 15.8242471181
W 7.9121235590 4.7472741354 17.4066718299
W 6.3296988472 3.1648494236 18.9890965417
W 7.9121235590 4.7472741354 20.5715212535
W 6.3296988472 3.1648494236 22.1539459653
W 7.9121235590 4.7472741354 23.7363706771
W 6.3296988472 3.1648494236 25.3187953889
W 7.9121235590 4.7472741354 26.9012201007
W 6.3296988472 3.1648494236 28.4836448125
W 7.9121235590 4.7472741354 30.0660695243
W 6.3296988472 6.3296988472 0.0000000000
W 7.9121235590 7.9121235590 1.5824247118
W 6.3296988472 6.3296988472 3.1648494236
W 7.9121235590 7.9121235590 4.7472741354
W 6.3296988472 6.3296988472 6.3296988472
W 7.9121235590 7.9121235590 7.9121235590
W 6.3296988472 6.3296988472 9.4945482708
W 7.9121235590 7.9121235590 11.0769729826
W 6.3296988472 6.3296988472 12.6593976944
W 7.9121235590 7.9121235590 14.2418224063
W 6.3296988472 6.3296988472 15.8242471181
W 7.9121235590 7.9121235590 17.4066718299
W 6.3296988472 6.3296988472 18.9890965417
W 7.9121235590 7.9121235590 20.5715212535
W 6.3296988472 6.3296988472 22.1539459653
W 7.9121235590 7.9121235590 23.7363706771
W 6.3296988472 6.3296988472 25.3187953889
W 7.9121235590 7.9121235590 26.9012201007
W 6.3296988472 6.3296988472 28.4836448125
W 7.9121235590 7.9121235590 30.0660695243
W 6.3296988472 9.4945482708 0.0000000000
W 7.9121235590 11.0769729826 1.5824247118
W 6.3296988472 9.4945482708 3.1648494236
W 7.9121235590 11.0769729826 4.7472741354
W 6.3296988472 9.4945482708 6.3296988472
W 7.9121235590 11.0769729826 7.9121235590
W 6.3296988472 9.4945482708 9.4945482708
W 7.9121235590 11.0769729826 11.0769729826
W 6.3296988472 9.4945482708 12.6593976944
W 7.9121235590 11.0769729826 14.2418224063
W 6.3296988472 9.4945482708 15.8242471181
W 7.9121235590 11.0769729826 17.4066718299
W 6.3296988472 9.4945482708 18.9890965417
W 7.9121235590 11.0769729826 20.5715212535
W 6.3296988472 9.4945482708 22.1539459653
W 7.9121235590 11.0769729826 23.7363706771
W 6.3296988472 9.4945482708 25.3187953889
W 7.9121235590 11.0769729826 26.9012201007
W 6.3296988472 9.4945482708 28.4836448125
W 7.9121235590 11.0769729826 30.0660695243
W 6.3296988472 12.6593976944 0.0000000000
W 7.9121235590 14.2418224063 1.5824247118
W 6.3296988472 12.6593976944 3.1648494236
W 7.9121235590 14.2418224063 4.7472741354
W 6.3296988472 12.6593976944 6.3296988472
W 7.9121235590 14.2418224063 7.9121235590
W 6.3296988472 12.6593976944 9.4945482708
W 7.9121235590 14.2418224063 11.0769729826
W 6.3296988472 12.6593976944 12.6593976944
W 7.9121235590 14.2418224063 14.2418224063
W 6.3296988472 12.6593976944 15.8242471181
W 7.9121235590 14.2418224063 17.4066718299
W 6.3296988472 12.6593976944 18.9890965417
W 7.9121235590 14.2418224063 20.5715212535
W 6.3296988472 12.6593976944 22.1539459653
W 7.9121235590 14.2418224063 23.7363706771
W 6.3296988472 12.6593976944 25.3187953889
W 7.9121235590 14.2418224063 26.9012201007
W 6.3296988472 12.6593976944 28.4836448125
W 7.9121235590 14.2418224063 30.0660695243
W 6.3296988472 15.8242471181 0.0000000000
W 7.9121235590 17.4066718299 1.5824247118
W 6.3296988472 15.8242471181 3.1648494236
W 7.9121235590 17.4066718299 4.7472741354
W 6.3296988472 15.8242471181 6.3296988472
W 7.9121235590 17.4066718299 7.9121235590
W 6.3296988472 15.8242471181 9.4945482708
W 7.9121235590 17.4066718299 11.0769729826
W 6.3296988472 15.8242471181 12.6593976944
W 7.9121235590 17.4066718299 14.2418224063
W 6.3296988472 15.8242471181 15.8242471181
W 7.9121235590 17.4066718299 17.4066718299
W 6.3296988472 15.8242471181 18.9890965417
W 7.9121235590 17.4066718299 20.5715212535
W 6.3296988472 15.8242471181 22.1539459653
W 7.9121235590 17.4066718299 23.7363706771
W 6.3296988472 15.8242471181 25.3187953889
W 7.9121235590 17.4066718299 26.9012201007
W 6.3296988472 15.8242471181 28.4836448125
W 7.9121235590 17.4066718299 30.0660695243
W 6.3296988472 18.9890965417 0.0000000000
W 7.9121235590 20.5715212535 1.5824247118
W 6.3296988472 18.9890965417 3.1648494236
W 7.9121235590 20.5715212535 4.7472741354
W 6.3296988472 18.9890965417 6.3296988472
W 7.9121235590 20.5715212535 7.9121235590
W 6.3296988472 18.9890965417 9.4945482708
W 7.9121235590 20.5715212535 11.0769729826
W 6.3296988472 18.9890965417 12.6593976944
W 7.9121235590 20.5715212535 14.2418224063
W 6.3296988472 18.9890965417 15.8242471181
W 7.9121235590 20.5715212535 17.4066718299
W 6.3296988472 18.9890965417 18.9890965417
W 7.9121235590 20.5715212535 20.5715212535
W 6.3296988472 18.9890965417 22.1539459653
W 7.9121235590 20.5715212535 23.7363706771
W 6.3296988472 18.9890965417 25.3187953889
W 7.9121235590 20.5715212535 26.9012201007
W 6.3296988472 18.9890965417 28.4836448125
W 7.9121235590 20.5715212535 30.0660695243
W 6.3296988472 22.1539459653 0.0000000000
W 7.9121235590 23.7363706771 1.5824247118
W 6.3296988472 22.1539459653 3.1648494236
W 7.9121235590 23.7363706771 4.7472741354
W 6.3296988472 22.1539459653 6.3296988472
W 7.9121235590 23.7363706771 7.9121235590
W 6.3296988472 22.1539459653 9.4945482708
W 7.9121235590 23.7363706771 11.0769729826
W 6.3296988472 22.1539459653 12.6593976944
W 7.9121235590 23.7363706771 14.2418224063
W 6.3296988472 22.1539459653 15.8242471181
W 7.9121235590 23.7363706771 17.4066718299
W 6.3296988472 22.1539459653 18.9890965417
W 7.9121235590 23.7363706771 20.5715212535
W 6.3296988472 22.1539459653 22.1539459653
W 7.9121235590 23.7363706771 23.7363706771
W 6.3296988472 22.1539459653 25.3187953889
W 7.9121235590 23.7363706771 26.9012201007
W 6.3296988472 22.1539459653 28.4836448125
W 7.9121235590 23.7363706771 30.0660695243
W 6.3296988472 25.3187953889 0.0000000000
W 7.9121235590 26.9012201007 1.5824247118
W 6.3296988472 25.3187953889 3.1648494236
W 7.9121235590 26.9012201007 4.7472741354
W 6.3296988472 25.3187953889 6.3296988472
W 7.9121235590 26.9012201007 7.9121235590
W 6.3296988472 25.3187953889 9.4945482708
W 7.9121235590 26.9012201007 11.0769729826
W 6.3296988472 25.3187953889 12.6593976944
W 7.9121235590 26.9012201007 14.2418224063
W 6.3296988472 25.3187953889 15.8242471181
W 7.9121235590 26.9012201007 17.4066718299
W 6.3296988472 25.3187953889 18.9890965417
W 7.9121235590 26.9012201007 20.5715212535
W 6.3296988472 25.3187953889 22.1539459653
W 7.9121235590 26.9012201007 23.7363706771
W 6.3296988472 25.3187953889 25.3187953889
W 7.9121235590 26.9012201007 26.9012201007
W 6.3296988472 25.3187953889 28.4836448125
W 7.9121235590 26.9012201007 30.0660695243
W 6.3296988472 28.4836448125 0.0000000000
W 7.9121235590 30.0660695243 1.5824247118
W 6.3296988472 28.4836448125 3.1648494236
W 7.9121235590 30.0660695243 4.7472741354
W 6.3296988472 28.4836448125 6.3296988472
W 7.9121235590 30.0660695243 7.9121235590
W 6.3296988472 28.4836448125 9.4945482708
W 7.9121235590 30.0660695243 11.0769729826
W 6.3296988472 28.4836448125 12.6593976944
W 7.9121235590 30.0660695243 14.2418224063
W 6.3296988472 28.4836448125 15.8242471181
W 7.9121235590 30.0660695243 17.4066718299
W 6.3296988472 28.4836448125 18.9890965417
W 7.9121235590 30.0660695243 20.5715212535
W 6.3296988472 28.4836448125 22.1539459653
W 7.9121235590 30.0660695243 23.7363706771
W 6.3296988472 28.4836448125 25.3187953889
W 7.9121235590 30.0660695243 26.9012201007
W 6.3296988472 28.4836448125 28.4836448125
W 7.9121235590 30.0660695243 30.0660695243
W 9.4945482708 0.0000000000 0.0000000000
W 11.0769729826 1.5824247118 1.5824247118
W 9.4945482708 0.0000000000 3.1648494236
W 11.0769729826 1.5824247118 4.7472741354
W 9.4945482708 0.0000000000 6.3296988472
W 11.0769729826 1.5824247118 7.9121235590
W 9.4945482708 0.0000000000 9.4945482708
W 11.0769729826 1.5824247118 11.0769729826
W 9.4945482708 0.0000000000 12.6593976944
W 11.0769729826 1.5824247118 14.2418224063
W 9.4945482708 0.0000000000 15.8242471181
W 11.0769729826 1.5824247118 17.4066718299
W 9.4945482708 0.0000000000 18.9890965417
W 11.0769729826 1.5824247118 20.5715212535
W 9.4945482708 0.0000000000 22.1539459653
W 11.0769729826 1.5824247118 23.7363706771
W 9.4945482708 0.0000000000 25.3187953889
W 11.0769729826 1.5824247118 26.9012201007
W 9.4945482708 0.0000000000 28.4836448125
W 11.0769729826 1.5824247118 30.0660695243
W 9.4945482708 3.1648494236 0.0000000000
W 11.0769729826 4.7472741354 1.5824247118
W 9.4945482708 3.1648494236 3.1648494236
W 11.0769729826 4.7472741354 4.7472741354
W 9.4945482708 3.1648494236 6.3296988472
W 11.0769729826 4.7472741354 7.9121235590
W 9.4945482708 3.1648494236 9.4945482708
W 11.0769729826 4.7472741354 11.0769729826
W 9.4945482708 3.1648494236 12.6593976944
W 11.0769729826 4.7472741354 14.2418224063
W 9.4945482708 3.1648494236 15.8242471181
W 11.0769729826 4.7472741354 17.4066718299
W 9.4945482708 3.1648494236 18.9890965417
W 11.0769729826 4.7472741354 20.5715212535
W 9.4945482708 3.1648494236 22.1539459653
W 11.0769729826 4.7472741354 23.7363706771
W 9.4945482708 3.1648494236 25.3187953889
W 11.0769729826 4.7472741354 26.9012201007
W 9.4945482708 3.1648494236 28.4836448125
W 11.0769729826 4.7472741354 30.0660695243
W 9.4945482708 6.3296988472 0.0000000000
W 11.0769729826 7.9121235590 1.5824247118
W 9.4945482708 6.3296988472 3.1648494236
W 11.0769729826 7.9121235590 4.7472741354
W 9.4945482708 6.3296988472 6.3296988472
W 11.0769729826 7.9121235590 7.9121235590
W 9.4945482708 6.3296988472 9.4945482708
W 11.0769729826 7.9121235590 11.0769729826
W 9.4945482708 6.3296988472 12.6593976944
W 11.0769729826 7.9121235590 14.2418224063
W 9.4945482708 6.3296988472 15.8242471181
W 11.0769729826 7.9121235590 17.4066718299
W 9.4945482708 6.3296988472 18.9890965417
W 11.0769729826 7.9121235590 20.5715212535
W 9.4945482708 6.3296988472 22.1539459653
W 11.0769729826 7.9121235590 23.7363706771
W 9.4945482708 6.3296988472 25.3187953889
W 11.0769729826 7.9121235590 26.9012201007
W 9.4945482708 6.3296988472 28.4836448125
W 11.0769729826 7.9121235590 30.0660695243
W 9.4945482708 9.4945482708 0.0000000000
W 11.0769729826 11.0769729826 1.5824247118
W 9.4945482708 9.4945482708 3.1648494236
W 11.0769729826 11.0769729826 4.7472741354
W 9.4945482708 9.4945482708 6.3296988472
W 11.0769729826 11.0769729826 7.9121235590
W 9.4945482708 9.4945482708 9.4945482708
W 11.0769729826 11.0769729826 11.0769729826
W 9.4945482708 9.4945482708 12.6593976944
W 11.0769729826 11.0769729826 14.2418224063
W 9.4945482708 9.4945482708 15.8242471181
W 11.0769729826 11.0769729826 17.4066718299
W 9.4945482708 9.4945482708 18.9890965417
W 11.0769729826 11.0769729826 20.5715212535
W 9.4945482708 9.4945482708 22.1539459653
W 11.0769729826 11.0769729826 23.7363706771
W 9.4945482708 9.4945482708 25.3187953889
W 11.0769729826 11.0769729826 26.9012201007
W 9.4945482708 9.4945482708 28.4836448125
W 11.0769729826 11.0769729826 30.0660695243
W 9.4945482708 12.6593976944 0.0000000000
W 11.0769729826 14.2418224063 1.5824247118
W 9.4945482708 12.6593976944 3.1648494236
W 11.0769729826 14.2418224063 4.7472741354
W 9.4945482708 12.6593976944 6.3296988472
W 11.0769729826 14.2418224063 7.9121235590
W 9.4945482708 12.6593976944 9.4945482708
W 11.0769729826 14.2418224063 11.0769729826
W 9.4945482708 12.6593976944 12.6593976944
W 11.0769729826 14.2418224063 14.2418224063
W 9.4945482708 12.6593976944 15.8242471181
W 11.0769729826 14.2418224063 17.4066718299
W 9.4945482708 12.6593976944 18.9890965417
W 11.0769729826 14.2418224063 20.5715212535
W 9.4945482708 12.6593976944 22.1539459653
W 11.0769729826 14.2418224063 23.7363706771
W 9.4945482708 12.6593976944 25.3187953889
W 11.0769729826 14.2418224063 26.9012201007
W 9.4945482708 12.6593976944 28.4836448125
W 11.0769729826 14.2418224063 30.0660695243
W 9.4945482708 15.8242471181 0.0000000000
W 11.0769729826 17.4066718299 1.5824247118
W 9.4945482708 15.8242471181 3.1648494236
W 11.0769729826 17.4066718299 4.7472741354
W 9.4945482708 15.8242471181 6.3296988472
W 11.0769729826 17.4066718299 7.9121235590
W 9.4945482708 15.8242471181 9.4945482708
W 11.0769729826 17.4066718299 11.0769729826
W 9.4945482708 15.8242471181 12.6593976944
W 11.0769729826 17.4066718299 14.2418224063
W 9.4945482708 15.8242471181 15.8242471181
W 11.0769729826 17.4066718299 17.4066718299
W 9.4945482708 15.8242471181 18.9890965417
W 11.0769729826 17.4066718299 20.5715212535
W 9.4945482708 15.8242471181 22.1539459653
W 11.0769729826 17.4066718299 23.7363706771
W 9.4945482708 15.8242471181 25.3187953889
W 11.0769729826 17.4066718299 26.9012201007
W 9.4945482708 15.8242471181 28.4836448125
W 11.0769729826 17.4066718299 30.0660695243
W 9.4945482708 18.9890965417 0.0000000000
W 11.0769729826 20.5715212535 1.5824247118
W 9.4945482708 18.9890965417 3.1648494236
W 11.0769729826 20.5715212535 4.7472741354
W 9.4945482708 18.9890965417 6.3296988472
W 11.0769729826 20.5715212535 7.9121235590
W 9.4945482708 18.9890965417 9.4945482708
W 11.0769729826 20.5715212535 11.0769729826
W 9.4945482708 18.9890965417 12.6593976944
W 11.0769729826 20.5715212535 14.2418224063
W 9.4945482708 18.9890965417 15.8242471181
W 11.0769729826 20.5715212535 17.4066718299
W 9.4945482708 18.9890965417 18.9890965417
W 11.0769729826 20.5715212535 20.5715212535
W 9.4945482708 18.9890965417 22.1539459653
W 11.0769729826 20.5715212535 23.7363706771
W 9.4945482708 18.9890965417 25.3187953889
W 11.0769729826 20.5715212535 26.9012201007
W 9.4945482708 18.9890965417 28.4836448125
W 11.0769729826 20.5715212535 30.0660695243
W 9.4945482708 22.1539459653 0.0000000000
W 11.0769729826 23.7363706771 1.5824247118
W 9.4945482708 22.1539459653 3.1648494236
W 11.0769729826 23.7363706771 4.7472741354
W 9.4945482708 22.1539459653 6.3296988472
W 11.0769729826 23.7363706771 7.9121235590
W 9.4945482708 22.1539459653 9.4945482708
W 11.0769729826 23.7363706771 11.0769729826
W 9.4945482708 22.1539459653 12.6593976944
W 11.0769729826 23.7363706771 14.2418224063
W 9.4945482708 22.1539459653 15.8242471181
W 11.0769729826 23.7363706771 17.4066718299
W 9.4945482708 22.1539459653 18.9890965417
W 11.0769729826 23.7363706771 20.5715212535
W 9.4945482708 22.1539459653 22.1539459653
W 11.0769729826 23.7363706771 23.7363706771
W 9.4945482708 22.1539459653 25.3187953889
W 11.0769729826 23.7363706771 26.9012201007
W 9.4945482708 22.1539459653 28.4836448125
W 11.0769729826 23.7363706771 30.0660695243
W 9.4945482708 25.3187953889 0.0000000000
W 11.0769729826 26.9012201007 1.5824247118
W 9.4945482708 25.3187953889 3.1648494236
W 11.0769729826 26.9012201007 4.7472741354
W 9.4945482708 25.3187953889 6.3296988472
W 11.0769729826 26.9012201007 7.9121235590
W 9.4945482708 25.3187953889 9.4945482708
W 11.0769729826 26.9012201007 11.0769729826
W 9.4945482708 25.3187953889 12.6593976944
W 11.0769729826 26.9012201007 14.2418224063
W 9.4945482708 25.3187953889 15.8242471181
W 11.0769729826 26.9012201007 17.4066718299
W 9.4945482708 25.3187953889 18.9890965417
W 11.0769729826 26.9012201007 20.5715212535
W 9.4945482708 25.3187953889 22.1539459653
W 11.0769729826 26.9012201007 23.7363706771
W 9.4945482708 25.3187953889 25.3187953889
W 11.0769729826 26.9012201007 26.9012201007
W 9.4945482708 25.3187953889 28.4836448125
W 11.0769729826 26.9012201007 30.0660695243
W 9.4945482708 28.4836448125 0.0000000000
W 11.0769729826 30.0660695243 1.5824247118
W 9.4945482708 28.4836448125 3.1648494236
W 11.0769729826 30.0660695243 4.7472741354
W 9.4945482708 28.4836448125 6.3296988472
W 11.0769729826 30.0660695243 7.9121235590
W 9.4945482708 28.4836448125 9.4945482708
W 11.0769729826 30.0660695243 11.0769729826
W 9.4945482708 28.4836448125 12.6593976944
W 11.0769729826 30.0660695243 14.2418224063
W 9.4945482708 28.4836448125 15.8242471181
W 11.0769729826 30.0660695243 17.4066718299
W 9.4945482708 28.4836448125 18.9890965417
W 11.0769729826 30.0660695243 20.5715212535
W 9.4945482708 28.4836448125 22.1539459653
W 11.0769729826 30.0660695243 23.7363706771
W 9.4945482708 28.4836448125 25.3187953889
W 11.0769729826 30.0660695243 26.9012201007
W 9.4945482708 28.4836448125 28.4836448125
W 11.0769729826 30.0660695243 30.0660695243
W 12.6593976944 0.0000000000 0.0000000000
W 14.2418224063 1.5824247118 1.5824247118
W 12.6593976944 0.0000000000 3.1648494236
W 14.2418224063 1.5824247118 4.7472741354
W 12.6593976944 0.0000000000 6.3296988472
W 14.2418224063 1.5824247118 7.9121235590
W 12.6593976944 0.0000000000 9.4945482708
W 14.2418224063 1.5824247118 11.0769729826
W 12.6593976944 0.0000000000 12.6593976944
W 14.2418224063 1.5824247118 14.2418224063
W 12.6593976944 0.0000000000 15.8242471181
W 14.2418224063 1.5824247118 17.4066718299
W 12.6593976944 0.0000000000 18.9890965417
W 14.2418224063 1.5824247118 20.5715212535
W 12.6593976944 0.0000000000 22.1539459653
W 14.2418224063 1.5824247118 23.7363706771
W 12.6593976944 0.0000000000 25.3187953889
W 14.2418224063 1.5824247118 26.9012201007
W 12.6593976944 0.0000000000 28.4836448125
W 14.2418224063 1.5824247118 30.0660695243
W 12.6593976944 3.1648494236 0.0000000000
W 14.2418224063 4.7472741354 1.5824247118
W 12.6593976944 3.1648494236 3.1648494236
W 14.2418224063 4.7472741354 4.7472741354
W 12.6593976944 3.1648494236 6.3296988472
W 14.2418224063 4.7472741354 7.9121235590
W 12.6593976944 3.1648494236 9.4945482708
W 14.2418224063 4.7472741354 11.0769729826
W 12.6593976944 3.1648494236 12.6593976944
W 14.2418224063 4.7472741354 14.2418224063
W 12.6593976944 3.1648494236 15.8242471181
W 14.2418224063 4.7472741354 17.4066718299
W 12.6593976944 3.1648494236 18.9890965417
W 14.2418224063 4.7472741354 20.5715212535
W 12.6593976944 3.1648494236 22.1539459653
W 14.2418224063 4.7472741354 23.7363706771
W 12.6593976944 3.1648494236 25.3187953889
W 14.2418224063 4.7472741354 26.9012201007
W 12.6593976944 3.1648494236 28.4836448125
W 14.2418224063 4.7472741354 30.0660695243
W 12.6593976944 6.3296988472 0.0000000000
W 14.2418224063 7.9121235590 1.5824247118
W 12.6593976944 6.3296988472 3.1648494236
W 14.2418224063 7.9121235590 4.7472741354
W 12.6593976944 6.3296988472 6.3296988472
W 14.2418224063 7.9121235590 7.9121235590
W 12.6593976944 6.3296988472 9.4945482708
W 14.2418224063 7.9121235590 11.0769729826
W 12.6593976944 6.3296988472 12.6593976944
W 14.2418224063 7.9121235590 14.2418224063
W 12.6593976944 6.3296988472 15.8242471181
W 14.2418224063 7.9121235590 17.4066718299
W 12.6593976944 6.3296988472 18.9890965417
W 14.2418224063 7.9121235590 20.5715212535
W 12.6593976944 6.3296988472 22.1539459653
W 14.2418224063 7.9121235590 23.7363706771
W 12.6593976944 6.3296988472 25.3187953889
W 14.2418224063 7.9121235590 26.9012201007
W 12.6593976944 6.3296988472 28.4836448125
W 14.2418224063 7.9121235590 30.0660695243
W 12.6593976944 9.4945482708 0.0000000000
W 14.2418224063 11.0769729826 1.5824247118
W 12.6593976944 9.4945482708 3.1648494236
W 14.2418224063 11.0769729826 4.7472741354
W 12.6593976944 9.4945482708 6.3296988472
W 14.2418224063 11.0769729826 7.9121235590
W 12.6593976944 9.4945482708 9.4945482708
W 14.2418224063 11.0769729826 11.0769729826
W 12.6593976944 9.4945482708 12.6593976944
W 14.2418224063 11.0769729826 14.2418224063
W 12.6593976944 9.4945482708 15.8242471181
W 14.2418224063 11.0769729826 17.4066718299
W 12.6593976944 9.4945482708 18.9890965417
W 14.2418224063 11.0769729826 20.5715212535
W 12.6593976944 9.4945482708 22.1539459653
W 14.2418224063 11.0769729826 23.7363706771
W 12.6593976944 9.4945482708 25.3187953889
W 14.2418224063 11.0769729826 26.9012201007
W 12.6593976944 9.4945482708 28.4836448125
W 14.2418224063 11.0769729826 30.0660695243
W 12.6593976944 12.6593976944 0.0000000000
W 14.2418224063 14.2418224063 1.5824247118
W 12.6593976944 12.6593976944 3.1648494236
W 14.2418224063 14.2418224063 4.7472741354
W 12.6593976944 12.6593976944 6.3296988472
W 14.2418224063 14.2418224063 7.9121235590
W 12.6593976944 12.6593976944 9.4945482708
W 14.2418224063 14.2418224063 11.0769729826
W 12.6593976944 12.6593976944 12.6593976944
W 14.2418224063 14.2418224063 14.2418224063
W 12.6593976944 12.6593976944 15.8242471181
W 14.2418224063 14.2418224063 17.4066718299
W 12.6593976944 12.6593976944 18.9890965417
W 14.2418224063 14.2418224063 20.5715212535
W 12.6593976944 12.6593976944 22.1539459653
W 14.2418224063 14.2418224063 23.7363706771
W 12.6593976944 12.6593976944 25.3187953889
W 14.2418224063 14.2418224063 26.9012201007
W 12.6593976944 12.6593976944 28.4836448125
W 14.2418224063 14.2418224063 30.0660695243
W 12.6593976944 15.8242471181 0.0000000000
W 14.2418224063 17.4066718299 1.5824247118
W 12.6593976944 15.8242471181 3.1648494236
W 14.2418224063 17.4066718299 4.7472741354
W 12.6593976944 15.8242471181 6.3296988472
W 14.2418224063 17.4066718299 7.9121235590
W 12.6593976944 15.8242471181 9.4945482708
W 14.2418224063 17.4066718299 11.0769729826
W 12.6593976944 15.8242471181 12.6593976944
W 14.2418224063 17.4066718299 14.2418224063
W 12.6593976944 15.8242471181 15.8242471181
W 14.2418224063 17.4066718299 17.4066718299
W 12.6593976944 15.8242471181 18.9890965417
W 14.2418224063 17.4066718299 20.5715212535
W 12.6593976944 15.8242471181 22.1539459653
W 14.2418224063 17.4066718299 23.7363706771
W 12.6593976944 15.8242471181 25.3187953889
W 14.2418224063 17.4066718299 26.9012201007
W 12.6593976944 15.8242471181 28.4836448125
W 14.2418224063 17.4066718299 30.0660695243
W 12.6593976944 18.9890965417 0.0000000000
W 14.2418224063 20.5715212535 1.5824247118
W 12.6593976944 18.9890965417 3.1648494236
W 14.2418224063 20.5715212535 4.7472741354
W 12.6593976944 18.9890965417 6.3296988472
W 14.2418224063 20.5715212535 7.9121235590
W 12.6593976944 18.9890965417 9.4945482708
W 14.2418224063 20.5715212535 11.0769729826
W 12.6593976944 18.9890965417 12.6593976944
W 14.2418224063 20.5715212535 14.2418224063
W 12.6593976944 18.9890965417 15.8242471181
W 14.2418224063 20.5715212535 17.4066718299
W 12.6593976944 18.9890965417 18.9890965417
W 14.2418224063 20.5715212535 20.5715212535
W 12.6593976944 18.9890965417 22.1539459653
W 14.2418224063 20.5715212535 23.7363706771
W 12.6593976944 18.9890965417 25.3187953889
W 14.2418224063 20.5715212535 26.9012201007
W 12.6593976944 18.9890965417 28.4836448125
W 14.2418224063 20.5715212535 30.0660695243
W 12.6593976944 22.1539459653 0.0000000000
W 14.2418224063 23.7363706771 1.5824247118
W 12.6593976944 22.1539459653 3.1648494236
W 14.2418224063 23.7363706771 4.7472741354
W 12.6593976944 22.1539459653 6.3296988472
W 14.2418224063 23.7363706771 7.9121235590
W 12.6593976944 22.1539459653 9.4945482708
W 14.2418224063 23.7363706771 11.0769729826
W 12.6593976944 22.1539459653 12.6593976944
W 14.2418224063 23.7363706771 14.2418224063
W 12.6593976944 22.1539459653 15.8242471181
W 14.2418224063 23.7363706771 17.4066718299
W 12.6593976944 22.1539459653 18.9890965417
W 14.2418224063 23.7363706771 20.5715212535
W 12.6593976944 22.1539459653 22.1539459653
W 14.2418224063 23.7363706771 23.7363706771
W 12.6593976944 22.1539459653 25.3187953889
W 14.2418224063 23.7363706771 26.9012201007
W 12.6593976944 22.1539459653 28.4836448125
W 14.2418224063 23.7363706771 30.0660695243
W 12.6593976944 25.3187953889 0.0000000000
W 14.2418224063 26.9012201007 1.5824247118
W 12.6593976944 25.3187953889 3.1648494236
W 14.2418224063 26.9012201007 4.7472741354
W 12.6593976944 25.3187953889 6.3296988472
W 14.2418224063 26.9012201007 7.9121235590
W 12.6593976944 25.3187953889 9.4945482708
W 14.2418224063 26.9012201007 11.0769729826
W 12.6593976944 25.3187953889 12.6593976944
W 14.2418224063 26.9012201007 14.2418224063
W 12.6593976944 25.3187953889 15.8242471181
W 14.2418224063 26.9012201007 17.4066718299
W 12.6593976944 25.3187953889 18.9890965417
W 14.2418224063 26.9012201007 20.5715212535
W 12.6593976944 25.3187953889 22.1539459653
W 14.2418224063 26.9012201007 23.7363706771
W 12.6593976944 25.3187953889 25.3187953889
W 14.2418224063 26.9012201007 26.9012201007
W 12.6593976944 25.3187953889 28.4836448125
W 14.2418224063 26.9012201007 30.0660695243
W 12.6593976944 28.4836448125 0.0000000000
W 14.2418224063 30.0660695243 1.5824247118
W 12.6593976944 28.4836448125 3.1648494236
W 14.2418224063 30.0660695243 4.7472741354
W 12.6593976944 28.4836448125 6.3296988472
W 14.2418224063 30.0660695243 7.9121235590
W 12.6593976944 28.4836448125 9.4945482708
W 14.2418224063 30.0660695243 11.0769729826
W 12.6593976944 28.4836448125 12.6593976944
W 14.2418224063 30.0660695243 14.2418224063
W 12.6593976944 28.4836448125 15.8242471181
W 14.2418224063 30.0660695243 17.4066718299
W 12.6593976944 28.4836448125 18.9890965417
W 14.2418224063 30.0660695243 20.5715212535
W 12.6593976944 28.4836448125 22.1539459653
W 14.2418224063 30.0660695243 23.7363706771
W 12.6593976944 28.4836448125 25.3187953889
W 14.2418224063 30.0660695243 26.9012201007
W 12.6593976944 28.4836448125 28.4836448125
W 14.2418224063 30.0660695243 30.0660695243
W 15.8242471181 0.0000000000 0.0000000000
W 17.4066718299 1.5824247118 1.5824247118
W 15.8242471181 0.0000000000 3.1648494236
W 17.4066718299 1.5824247118 4.7472741354
W 15.8242471181 0.0000000000 6.3296988472
W 17.4066718299 1.5824247118 7.9121235590
W 15.8242471181 0.0000000000 9.4945482708
W 17.4066718299 1.5824247118 11.0769729826
W 15.8242471181 0.0000000000 12.6593976944
W 17.4066718299 1.5824247118 14.2418224063
W 15.8242471181 0.0000000000 15.8242471181
W 17.4066718299 1.5824247118 17.4066718299
W 15.8242471181 0.0000000000 18.9890965417
W 17.4066718299 1.5824247118 20.5715212535
W 15.8242471181 0.0000000000 22.1539459653
W 17.4066718299 1.5824247118 23.7363706771
W 15.8242471181 0.0000000000 25.3187953889
W 17.4066718299 1.5824247118 26.9012201007
W 15.8242471181 0.0000000000 28.4836448125
W 17.4066718299 1.5824247118 30.0660695243
W 15.8242471181 3.1648494236 0.0000000000
W 17.4066718299 4.7472741354 1.5824247118
W 15.8242471181 3.1648494236 3.1648494236
W 17.4066718299 4.7472741354 4.7472741354
W 15.8242471181 3.1648494236 6.3296988472
W 17.4066718299 4.7472741354 7.9121235590
W 15.8242471181 3.1648494236 9.4945482708
W 17.4066718299 4.7472741354 11.0769729826
W 15.8242471181 3.1648494236 12.6593976944
W 17.4066718299 4.7472741354 14.2418224063
W 15.8242471181 3.1648494236 15.8242471181
W 17.4066718299 4.7472741354 17.4066718299
W 15.8242471181 3.1648494236 18.9890965417
W 17.4066718299 4.7472741354 20.5715212535
W 15.8242471181 3.1648494236 22.1539459653
W 17.4066718299 4.7472741354 23.7363706771
W 15.8242471181 3.1648494236 25.3187953889
W 17.4066718299 4.7472741354 26.9012201007
W 15.8242471181 3.1648494236 28.4836448125
W 17.4066718299 4.7472741354 30.0660695243
W 15.8242471181 6.3296988472 0.0000000000
W 17.4066718299 7.9121235590 1.5824247118
W 15.8242471181 6.3296988472 3.1648494236
W 17.4066718299 7.9121235590 4.7472741354
W 15.8242471181 6.3296988472 6.3296988472
W 17.4066718299 7.9121235590 7.9121235590
W 15.8242471181 6.3296988472 9.4945482708
W 17.4066718299 7.9121235590 11.0769729826
W 15.8242471181 6.3296988472 12.6593976944
W 17.4066718299 7.9121235590 14.2418224063
W 15.8242471181 6.3296988472 15.8242471181
W 17.4066718299 7.9121235590 17.4066718299
W 15.8242471181 6.3296988472 18.9890965417
W 17.4066718299 7.9121235590 20.5715212535
W 15.8242471181 6.3296988472 22.1539459653
W 17.4066718299 7.9121235590 23.7363706771
W 15.8242471181 6.3296988472 25.3187953889
W 17.4066718299 7.9121235590 26.9012201007
W 15.8242471181 6.3296988472 28.4836448125
W 17.4066718299 7.9121235590 30.0660695243
W 15.8242471181 9.4945482708 0.0000000000
W 17.4066718299 11.0769729826 1.5824247118
W 15.8242471181 9.4945482708 3.1648494236
W 17.4066718299 11.0769729826 4.7472741354
W 15.8242471181 9.4945482708 6.3296988472
W 17.4066718299 11.0769729826 7.9121235590
W 15.8242471181 9.4945482708 9.4945482708
W 17.4066718299 11.0769729826 11.0769729826
W 15.8242471181 9.4945482708 12.6593976944
W 17.4066718299 11.0769729826 14.2418224063
W 15.8242471181 9.4945482708 15.8242471181
W 17.4066718299 11.0769729826 17.4066718299
W 15.8242471181 9.4945482708 18.9890965417
W 17.4066718299 11.0769729826 20.5715212535
W 15.8242471181 9.4945482708 22.1539459653
W 17.4066718299 11.0769729826 23.7363706771
W 15.8242471181 9.4945482708 25.3187953889
W 17.4066718299 11.0769729826 26.9012201007
W 15.8242471181 9.4945482708 28.4836448125
W 17.4066718299 11.0769729826 30.0660695243
W 15.8242471181 12.6593976944 0.0000000000
W 17.4066718299 14.2418224063 1.5824247118
W 15.8242471181 12.6593976944 3.1648494236
W 17.4066718299 14.2418224063 4.7472741354
W 15.8242471181 12.6593976944 6.3296988472
W 17.4066718299 14.2418224063 7.9121235590
W 15.8242471181 12.6593976944 9.4945482708
W 17.4066718299 14.2418224063 11.0769729826
W 15.8242471181 12.6593976944 12.6593976944
W 17.4066718299 14.2418224063 14.2418224063
W 15.8242471181 12.6593976944 15.8242471181
W 17.4066718299 14.2418224063 17.4066718299
W 15.8242471181 12.6593976944 18.9890965417
W 17.4066718299 14.2418224063 20.5715212535
W 15.8242471181 12.6593976944 22.1539459653
W 17.4066718299 14.2418224063 23.7363706771
W 15.8242471181 12.6593976944 25.3187953889
W 17.4066718299 14.2418224063 26.9012201007
W 15.8242471181 12.6593976944 28.4836448125
W 17.4066718299 14.2418224063 30.0660695243
W 15.8242471181 15.8242471181 0.0000000000
W 17.4066718299 17.4066718299 1.5824247118
W 15.8242471181 15.8242471181 3.1648494236
W 17.4066718299 17.4066718299 4.7472741354
W 15.8242471181 15.8242471181 6.3296988472
W 17.4066718299 17.4066718299 7.9121235590
W 15.8242471181 15.8242471181 9.4945482708
W 17.4066718299 17.4066718299 11.0769729826
W 15.8242471181 15.8242471181 12.6593976944
W 17.4066718299 17.4066718299 14.2418224063
W 15.8242471181 15.8242471181 15.8242471181
W 17.4066718299 17.4066718299 17.4066718299
W 15.8242471181 15.8242471181 18.9890965417
W 17.4066718299 17.4066718299 20.5715212535
W 15.8242471181 15.8242471181 22.1539459653
W 17.4066718299 17.4066718299 23.7363706771
W 15.8242471181 15.8242471181 25.3187953889
W 17.4066718299 17.4066718299 26.9012201007
W 15.8242471181 15.8242471181 28.4836448125
W 17.4066718299 17.4066718299 30.0660695243
W 15.8242471181 18.9890965417 0.0000000000
W 17.4066718299 20.5715212535 1.5824247118
W 15.8242471181 18.9890965417 3.1648494236
W 17.4066718299 20.5715212535 4.7472741354
W 15.8242471181 18.9890965417 6.3296988472
W 17.4066718299 20.5715212535 7.9121235590
W 15.8242471181 18.9890965417 9.4945482708
W 17.4066718299 20.5715212535 11.0769729826
W 15.8242471181 18.9890965417 12.6593976944
W 17.4066718299 20.5715212535 14.2418224063
W 15.8242471181 18.9890965417 15.8242471181
W 17.4066718299 20.5715212535 17.4066718299
W 15.8242471181 18.9890965417 18.9890965417
W 17.4066718299 20.5715212535 20.5715212535
W 15.8242471181 18.9890965417 22.1539459653
W 17.4066718299 20.5715212535 23.7363706771
W 15.8242471181 18.9890965417 25.3187953889
W 17.4066718299 20.5715212535 26.9012201007
W 15.8242471181 18.9890965417 28.4836448125
W 17.4066718299 20.5715212535 30.0660695243
W 15.8242471181 22.1539459653 0.0000000000
W 17.4066718299 23.7363706771 1.5824247118
W 15.8242471181 22.1539459653 3.1648494236
W 17.4066718299 23.7363706771 4.7472741354
W 15.8242471181 22.1539459653 6.3296988472
W 17.4066718299 23.7363706771 7.9121235590
W 15.8242471181 22.1539459653 9.4945482708
W 17.4066718299 23.7363706771 11.0769729826
W 15.8242471181 22.1539459653 12.6593976944
W 17.4066718299 23.7363706771 14.2418224063
W 15.8242471181 22.1539459653 15.8242471181
W 17.4066718299 23.7363706771 17.4066718299
W 15.8242471181 22.1539459653 18.9890965417
W 17.4066718299 23.7363706771 20.5715212535
W 15.8242471181 22.1539459653 22.1539459653
W 17.4066718299 23.7363706771 23.7363706771
W 15.8242471181 22.1539459653 25.3187953889
W 17.4066718299 23.7363706771 26.9012201007
W 15.8242471181 22.1539459653 28.4836448125
W 17.4066718299 23.7363706771 30.0660695243
W 15.8242471181 25.3187953889 0.0000000000
W 17.4066718299 26.9012201007 1.5824247118
W 15.8242471181 25.3187953889 3.1648494236
W 17.4066718299 26.9012201007 4.7472741354
W 15.8242471181 25.3187953889 6.3296988472
W 17.4066718299 26.9012201007 7.9121235590
W 15.8242471181 25.3187953889 9.4945482708
W 17.4066718299 26.9012201007 11.0769729826
W 15.8242471181 25.3187953889 12.6593976944
W 17.4066718299 26.9012201007 14.2418224063
W 15.8242471181 25.3187953889 15.8242471181
W 17.4066718299 26.9012201007 17.4066718299
W 15.8242471181 25.3187953889 18.9890965417
W 17.4066718299 26.9012201007 20.5715212535
W 15.8242471181 25.3187953889 22.1539459653
W 17.4066718299 26.9012201007 23.7363706771
W 15.8242471181 25.3187953889 25.3187953889
W 17.4066718299 26.9012201007 26.9012201007
W 15.8242471181 25.3187953889 28.4836448125
W 17.4066718299 26.9012201007 30.0660695243
W 15.8242471181 28.4836448125 0.0000000000
W 17.4066718299 30.0660695243 1.5824247118
W 15.8242471181 28.4836448125 3.1648494236
W 17.4066718299 30.0660695243 4.7472741354
W 15.8242471181 28.4836448125 6.3296988472
W 17.4066718299 30.0660695243 7.9121235590
W 15.8242471181 28.4836448125 9.4945482708
W 17.4066718299 30.0660695243 11.0769729826
W 15.8242471181 28.4836448125 12.6593976944
W 17.4066718299 30.0660695243 14.2418224063
W 15.8242471181 28.4836448125 15.8242471181
W 17.4066718299 30.0660695243 17.4066718299
W 15.8242471181 28.4836448125 18.9890965417
W 17.4066718299 30.0660695243 20.5715212535
W 15.8242471181 28.4836448125 22.1539459653
W 17.4066718299 30.0660695243 23.7363706771
W 15.8242471181 28.4836448125 25.3187953889
W 17.4066718299 30.0660695243 26.9012201007
W 15.8242471181 28.4836448125 28.4836448125
W 17.4066718299 30.0660695243 30.0660695243
W 18.9890965417 0.0000000000 0.0000000000
W 20.5715212535 1.5824247118 1.5824247118
W 18.9890965417 0.0000000000 3.1648494236
W 20.5715212535 1.5824247118 4.7472741354
W 18.9890965417 0.0000000000 6.3296988472
W 20.5715212535 1.5824247118 7.9121235590
W 18.9890965417 0.0000000000 9.4945482708
W 20.5715212535 1.5824247118 11.0769729826
W 18.9890965417 0.0000000000 12.6593976944
W 20.5715212535 1.5824247118 14.2418224063
W 18.9890965417 0.0000000000 15.8242471181
W 20.5715212535 1.5824247118 17.4066718299
W 18.9890965417 0.0000000000 18.9890965417
W 20.5715212535 1.5824247118 20.5715212535
W 18.9890965417 0.0000000000 22.1539459653
W 20.5715212535 1.5824247118 23.7363706771
W 18.9890965417 0.0000000000 25.3187953889
W 20.5715212535 1.5824247118 26.9012201007
W 18.9890965417 0.0000000000 28.4836448125
W 20.5715212535 1.5824247118 30.0660695243
W 18.9890965417 3.1648494236 0.0000000000
W 20.5715212535 4.7472741354 1.5824247118
W 18.9890965417 3.1648494236 3.1648494236
W 20.5715212535 4.7472741354 4.7472741354
W 18.9890965417 3.1648494236 6.3296988472
W 20.5715212535 4.7472741354 7.9121235590
W 18.9890965417 3.1648494236 9.4945482708
W 20.5715212535 4.7472741354 11.0769729826
W 18.9890965417 3.1648494236 12.6593976944
W 20.5715212535 4.7472741354 14.2418224063
W 18.9890965417 3.1648494236 15.8242471181
W 20.5715212535 4.7472741354 17.4066718299
W 18.9890965417 3.1648494236 18.9890965417
W 20.5715212535 4.7472741354 20.5715212535
W 18.9890965417 3.1648494236 22.1539459653
W 20.5715212535 4.7472741354 23.7363706771
W 18.9890965417 3.1648494236 25.3187953889
W 20.5715212535 4.7472741354 26.9012201007
W 18.9890965417 3.1648494236 28.4836448125
W 20.5715212535 4.7472741354 30.0660695243
W 18.9890965417 6.3296988472 0.0000000000
W 20.5715212535 7.9121235590 1.5824247118
W 18.9890965417 6.3296988472 3.1648494236
W 20.5715212535 7.9121235590 4.7472741354
W 18.9890965417 6.3296988472 6.3296988472
W 20.5715212535 7.9121235590 7.9121235590
W 18.9890965417 6.3296988472 9.4945482708
W 20.5715212535 7.9121235590 11.0769729826
W 18.9890965417 6.3296988472 12.6593976944
W 20.5715212535 7.9121235590 14.2418224063
W 18.9890965417 6.3296988472 15.8242471181
W 20.5715212535 7.9121235590 17.4066718299
W 18.9890965417 6.3296988472 18.9890965417
W 20.5715212535 7.9121235590 20.5715212535
W 18.9890965417 6.3296988472 22.1539459653
W 20.5715212535 7.9121235590 23.7363706771
W 18.9890965417 6.3296988472 25.3187953889
W 20.5715212535 7.9121235590 26.9012201007
W 18.9890965417 6.3296988472 28.4836448125
W 20.5715212535 7.9121235590 30.0660695243
W 18.9890965417 9.4945482708 0.0000000000
W 20.5715212535 11.0769729826 1.5824247118
W 18.9890965417 9.4945482708 3.1648494236
W 20.5715212535 11.0769729826 4.7472741354
W 18.9890965417 9.4945482708 6.3296988472
W 20.5715212535 11.0769729826 7.9121235590
W 18.9890965417 9.4945482708 9.4945482708
W 20.5715212535 11.0769729826 11.0769729826
W 18.9890965417 9.4945482708 12.6593976944
W 20.5715212535 11.0769729826 14.2418224063
W 18.9890965417 9.4945482708 15.8242471181
W 20.5715212535 11.0769729826 17.4066718299
W 18.9890965417 9.4945482708 18.9890965417
W 20.5715212535 11.0769729826 20.5715212535
W 18.9890965417 9.4945482708 22.1539459653
W 20.5715212535 11.0769729826 23.7363706771
W 18.9890965417 9.4945482708 25.3187953889
W 20.5715212535 11.0769729826 26.9012201007
W 18.9890965417 9.4945482708 28.4836448125
W 20.5715212535 11.0769729826 30.0660695243
W 18.9890965417 12.6593976944 0.0000000000
W 20.5715212535 14.2418224063 1.5824247118
W 18.9890965417 12.6593976944 3.1648494236
W 20.5715212535 14.2418224063 4.7472741354
W 18.9890965417 12.6593976944 6.3296988472
W 20.5715212535 14.2418224063 7.9121235590
W 18.9890965417 12.6593976944 9.4945482708
W 20.5715212535 14.2418224063 11.0769729826
W 18.9890965417 12.6593976944 12.6593976944
W 20.5715212535 14.2418224063 14.2418224063
W 18.9890965417 12.6593976944 15.8242471181
W 20.5715212535 14.2418224063 17.4066718299
W 18.9890965417 12.6593976944 18.9890965417
W 20.5715212535 14.2418224063 20.5715212535
W 18.9890965417 12.6593976944 22.1539459653
W 20.5715212535 14.2418224063 23.7363706771
W 18.9890965417 12.6593976944 25.3187953889
W 20.5715212535 14.2418224063 26.9012201007
W 18.9890965417 12.6593976944 28.4836448125
W 20.5715212535 14.2418224063 30.0660695243
W 18.9890965417 15.8242471181 0.0000000000
W 20.5715212535 17.4066718299 1.5824247118
W 18.9890965417 15.8242471181 3.1648494236
W 20.5715212535 17.4066718299 4.7472741354
W 18.9890965417 15.8242471181 6.3296988472
W 20.5715212535 17.4066718299 7.9121235590
W 18.9890965417 15.8242471181 9.4945482708
W 20.5715212535 17.4066718299 11.0769729826
W 18.9890965417 15.8242471181 12.6593976944
W 20.5715212535 17.4066718299 14.2418224063
W 18.9890965417 15.8242471181 15.8242471181
W 20.5715212535 17.4066718299 17.4066718299
W 18.9890965417 15.8242471181 18.9890965417
W 20.5715212535 17.4066718299 20.5715212535
W 18.9890965417 15.8242471181 22.1539459653
W 20.5715212535 17.4066718299 23.7363706771
W 18.9890965417 15.8242471181 25.3187953889
W 20.5715212535 17.4066718299 26.9012201007
W 18.9890965417 15.8242471181 28.4836448125
W 20.5715212535 17.4066718299 30.0660695243
W 18.9890965417 18.9890965417 0.0000000000
W 20.5715212535 20.5715212535 1.5824247118
W 18.9890965417 18.9890965417 3.1648494236
W 20.5715212535 20.5715212535 4.7472741354
W 18.9890965417 18.9890965417 6.3296988472
W 20.5715212535 20.5715212535 7.9121235590
W 18.9890965417 18.9890965417 9.4945482708
W 20.5715212535 20.5715212535 11.0769729826
W 18.9890965417 18.9890965417 12.6593976944
W 20.5715212535 20.5715212535 14.2418224063
W 18.9890965417 18.9890965417 15.8242471181
W 20.5715212535 20.5715212535 17.4066718299
W 18.9890965417 18.9890965417 18.9890965417
W 20.5715212535 20.5715212535 20.5715212535
W 18.9890965417 18.9890965417 22.1539459653
W 20.5715212535 20.5715212535 23.7363706771
W 18.9890965417 18.9890965417 25.3187953889
W 20.5715212535 20.5715212535 26.9012201007
W 18.9890965417 18.9890965417 28.4836448125
W 20.5715212535 20.5715212535 30.0660695243
W 18.9890965417 22.1539459653 0.0000000000
W 20.5715212535 23.7363706771 1.5824247118
W 18.9890965417 22.1539459653 3.1648494236
W 20.5715212535 23.7363706771 4.7472741354
W 18.9890965417 22.1539459653 6.3296988472
W 20.5715212535 23.7363706771 7.9121235590
W 18.9890965417 22.1539459653 9.4945482708
W 20.5715212535 23.7363706771 11.0769729826
W 18.9890965417 22.1539459653 12.6593976944
W 20.5715212535 23.7363706771 14.2418224063
W 18.9890965417 22.1539459653 15.8242471181
W 20.5715212535 23.7363706771 17.4066718299
W 18.9890965417 22.1539459653 18.9890965417
W 20.5715212535 23.7363706771 20.5715212535
W 18.9890965417 22.1539459653 22.1539459653
W 20.5715212535 23.7363706771 23.7363706771
W 18.9890965417 22.1539459653 25.3187953889
W 20.5715212535 23.7363706771 26.9012201007
W 18.9890965417 22.1539459653 28.4836448125
W 20.5715212535 23.7363706771 30.0660695243
W 18.9890965417 25.3187953889 0.0000000000
W 20.5715212535 26.9012201007 1.5824247118
W 18.9890965417 25.3187953889 3.1648494236
W 20.5715212535 26.9012201007 4.7472741354
W 18.9890965417 25.3187953889 6.3296988472
W 20.5715212535 26.9012201007 7.9121235590
W 18.9890965417 25.3187953889 9.4945482708
W 20.5715212535 26.9012201007 11.0769729826
W 18.9890965417 25.3187953889 12.6593976944
W 20.5715212535 26.9012201007 14.2418224063
W 18.9890965417 25.3187953889 15.8242471181
W 20.5715212535 26.9012201007 17.4066718299
W 18.9890965417 25.3187953889 18.9890965417
W 20.5715212535 26.9012201007 20.5715212535
W 18.9890965417 25.3187953889 22.1539459653
W 20.5715212535 26.9012201007 23.7363706771
W 18.9890965417 25.3187953889 25.3187953889
W 20.5715212535 26.9012201007 26.9012201007
W 18.9890965417 25.3187953889 28.4836448125
W 20.5715212535 26.9012201007 30.0660695243
W 18.9890965417 28.4836448125 0.0000000000
W 20.5715212535 30.0660695243 1.5824247118
W 18.9890965417 28.4836448125 3.1648494236
W 20.5715212535 30.0660695243 4.7472741354
W 18.9890965417 28.4836448125 6.3296988472
W 20.5715212535 30.0660695243 7.9121235590
W 18.9890965417 28.4836448125 9.4945482708
W 20.5715212535 30.0660695243 11.0769729826
W 18.9890965417 28.4836448125 12.6593976944
W 20.5715212535 30.0660695243 14.2418224063
W 18.9890965417 28.4836448125 15.8242471181
W 20.5715212535 30.0660695243 17.4066718299
W 18.9890965417 28.4836448125 18.9890965417
W 20.5715212535 30.0660695243 20.5715212535
W 18.9890965417 28.4836448125 22.1539459653
W 20.5715212535 30.0660695243 23.7363706771
W 18.9890965417 28.4836448125 25.3187953889
W 20.5715212535 30.0660695243 26.9012201007
W 18.9890965417 28.4836448125 28.4836448125
W 20.5715212535 30.0660695243 30.0660695243
W 22.1539459653 0.0000000000 0.0000000000
W 23.7363706771 1.5824247118 1.5824247118
W 22.1539459653 0.0000000000 3.1648494236
W 23.7363706771 1.5824247118 4.7472741354
W 22.1539459653 0.0000000000 6.3296988472
W 23.7363706771 1.5824247118 7.9121235590
W 22.1539459653 0.0000000000 9.4945482708
W 23.7363706771 1.5824247118 11.0769729826
W 22.1539459653 0.0000000000 12.6593976944
W 23.7363706771 1.5824247118 14.2418224063
W 22.1539459653 0.0000000000 15.8242471181
W 23.7363706771 1.5824247118 17.4066718299
W 22.1539459653 0.0000000000 18.9890965417
W 23.7363706771 1.5824247118 20.5715212535
W 22.1539459653 0.0000000000 22.1539459653
W 23.7363706771 1.5824247118 23.7363706771
W 22.1539459653 0.0000000000 25.3187953889
W 23.7363706771 1.5824247118 26.9012201007
W 22.1539459653 0.0000000000 28.4836448125
W 23.7363706771 1.5824247118 30.0660695243
W 22.1539459653 3.1648494236 0.0000000000
W 23.7363706771 4.7472741354 1.5824247118
W 22.1539459653 3.1648494236 3.1648494236
W 23.7363706771 4.7472741354 4.7472741354
W 22.1539459653 3.1648494236 6.3296988472
W 23.7363706771 4.7472741354 7.9121235590
W 22.1539459653 3.1648494236 9.4945482708
W 23.7363706771 4.7472741354 11.0769729826
W 22.1539459653 3.1648494236 12.6593976944
W 23.7363706771 4.7472741354 14.2418224063
W 22.1539459653 3.1648494236 15.8242471181
W 23.7363706771 4.7472741354 17.4066718299
W 22.1539459653 3.1648494236 18.9890965417
W 23.7363706771 4.7472741354 20.5715212535
W 22.1539459653 3.1648494236 22.1539459653
W 23.7363706771 4.7472741354 23.7363706771
W 22.1539459653 3.1648494236 25.3187953889
W 23.7363706771 4.7472741354 26.9012201007
W 22.1539459653 3.1648494236 28.4836448125
W 23.7363706771 4.7472741354 30.0660695243
W 22.1539459653 6.3296988472 0.0000000000
W 23.7363706771 7.9121235590 1.5824247118
W 22.1539459653 6.3296988472 3.1648494236
W 23.7363706771 7.9121235590 4.7472741354
W 22.1539459653 6.3296988472 6.3296988472
W 23.7363706771 7.9121235590 7.9121235590
W 22.1539459653 6.3296988472 9.4945482708
W 23.7363706771 7.9121235590 11.0769729826
W 22.1539459653 6.3296988472 12.6593976944
W 23.7363706771 7.9121235590 14.2418224063
W 22.1539459653 6.3296988472 15.8242471181
W 23.7363706771 7.9121235590 17.4066718299
W 22.1539459653 6.3296988472 18.9890965417
W 23.7363706771 7.9121235590 20.5715212535
W 22.1539459653 6.3296988472 22.1539459653
W 23.7363706771 7.9121235590 23.7363706771
W 22.1539459653 6.3296988472 25.3187953889
W 23.7363706771 7.9121235590 26.9012201007
W 22.1539459653 6.3296988472 28.4836448125
W 23.7363706771 7.9121235590 30.0660695243
W 22.1539459653 9.4945482708 0.0000000000
W 23.7363706771 11.0769729826 1.5824247118
W 22.1539459653 9.4945482708 3.1648494236
W 23.7363706771 11.0769729826 4.7472741354
W 22.1539459653 9.4945482708 6.3296988472
W 23.7363706771 11.0769729826 7.9121235590
W 22.1539459653 9.4945482708 9.4945482708
W 23.7363706771 11.0769729826 11.0769729826
W 22.1539459653 9.4945482708 12.6593976944
W 23.7363706771 11.0769729826 14.2418224063
W 22.1539459653 9.4945482708 15.8242471181
W 23.7363706771 11.0769729826 17.4066718299
W 22.1539459653 9.4945482708 18.9890965417
W 23.7363706771 11.0769729826 20.5715212535
W 22.1539459653 9.4945482708 22.1539459653
W 23.7363706771 11.0769729826 23.7363706771
W 22.1539459653 9.4945482708 25.3187953889
W 23.7363706771 11.0769729826 26.9012201007
W 22.1539459653 9.4945482708 28.4836448125
W 23.7363706771 11.0769729826 30.0660695243
W 22.1539459653 12.6593976944 0.0000000000
W 23.7363706771 14.2418224063 1.5824247118
W 22.1539459653 12.6593976944 3.1648494236
W 23.7363706771 14.2418224063 4.7472741354
W 22.1539459653 12.6593976944 6.3296988472
W 23.7363706771 14.2418224063 7.9121235590
W 22.1539459653 12.6593976944 9.4945482708
W 23.7363706771 14.2418224063 11.0769729826
W 22.1539459653 12.6593976944 12.6593976944
W 23.7363706771 14.2418224063 14.2418224063
W 22.1539459653 12.6593976944 15.8242471181
W 23.7363706771 14.2418224063 17.4066718299
W 22.1539459653 12.6593976944 18.9890965417
W 23.7363706771 14.2418224063 20.5715212535
W 22.1539459653 12.6593976944 22.1539459653
W 23.7363706771 14.2418224063 23.7363706771
W 22.1539459653 12.6593976944 25.3187953889
W 23.7363706771 14.2418224063 26.9012201007
W 22.1539459653 12.6593976944 28.4836448125
W 23.7363706771 14.2418224063 30.0660695243
W 22.1539459653 15.8242471181 0.0000000000
W 23.7363706771 17.4066718299 1.5824247118
W 22.1539459653 15.8242471181 3.1648494236
W 23.7363706771 17.4066718299 4.7472741354
W 22.1539459653 15.8242471181 6.3296988472
W 23.7363706771 17.4066718299 7.9121235590
W 22.1539459653 15.8242471181 9.4945482708
W 23.7363706771 17.4066718299 11.0769729826
W 22.1539459653 15.8242471181 12.6593976944
W 23.7363706771 17.4066718299 14.2418224063
W 22.1539459653 15.8242471181 15.8242471181
W 23.7363706771 17.4066718299 17.4066718299
W 22.1539459653 15.8242471181 18.9890965417
W 23.7363706771 17.4066718299 20.5715212535
W 22.1539459653 15.8242471181 22.1539459653
W 23.7363706771 17.4066718299 23.7363706771
W 22.1539459653 15.8242471181 25.3187953889
W 23.7363706771 17.4066718299 26.9012201007
W 22.1539459653 15.8242471181 28.4836448125
W 23.7363706771 17.4066718299 30.0660695243
W 22.1539459653 18.9890965417 0.0000000000
W 23.7363706771 20.5715212535 1.5824247118
W 22.1539459653 18.9890965417 3.1648494236
W 23.7363706771 20.5715212535 4.7472741354
W 22.1539459653 18.9890965417 6.3296988472
W 23.7363706771 20.5715212535 7.9121235590
W 22.1539459653 18.9890965417 9.4945482708
W 23.7363706771 20.5715212535 11.0769729826
W 22.1539459653 18.9890965417 12.6593976944
W 23.7363706771 20.5715212535 14.2418224063
W 22.1539459653 18.9890965417 15.8242471181
W 23.7363706771 20.5715212535 17.4066718299
W 22.1539459653 18.9890965417 18.9890965417
W 23.7363706771 20.5715212535 20.5715212535
W 22.1539459653 18.9890965417 22.1539459653
W 23.7363706771 20.5715212535 23.7363706771
W 22.1539459653 18.9890965417 25.3187953889
W 23.7363706771 20.5715212535 26.9012201007
W 22.1539459653 18.9890965417 28.4836448125
W 23.7363706771 20.5715212535 30.0660695243
W 22.1539459653 22.1539459653 0.0000000000
W 23.7363706771 23.7363706771 1.5824247118
W 22.1539459653 22.1539459653 3.1648494236
W 23.7363706771 23.7363706771 4.7472741354
W 22.1539459653 22.1539459653 6.3296988472
W 23.7363706771 23.7363706771 7.9121235590
W 22.1539459653 22.1539459653 9.4945482708
W 23.7363706771 23.7363706771 11.0769729826
W 22.1539459653 22.1539459653 12.6593976944
W 23.7363706771 23.7363706771 14.2418224063
W 22.1539459653 22.1539459653 15.8242471181
W 23.7363706771 23.7363706771 17.4066718299
W 22.1539459653 22.1539459653 18.9890965417
W 23.7363706771 23.7363706771 20.5715212535
W 22.1539459653 22.1539459653 22.1539459653
W 23.7363706771 23.7363706771 23.7363706771
W 22.1539459653 22.1539459653 25.3187953889
W 23.7363706771 23.7363706771 26.9012201007
W 22.1539459653 22.1539459653 28.4836448125
W 23.7363706771 23.7363706771 30.0660695243
W 22.1539459653 25.3187953889 0.0000000000
W 23.7363706771 26.9012201007 1.5824247118
W 22.1539459653 25.3187953889 3.1648494236
W 23.7363706771 26.9012201007 4.7472741354
W 22.1539459653 25.3187953889 6.3296988472
W 23.7363706771 26.9012201007 7.9121235590
W 22.1539459653 25.3187953889 9.4945482708
W 23.7363706771 26.9012201007 11.0769729826
W 22.1539459653 25.3187953889 12.6593976944
W 23.7363706771 26.9012201007 14.2418224063
W 22.1539459653 25.3187953889 15.8242471181
W 23.7363706771 26.9012201007 17.4066718299
W 22.1539459653 25.3187953889 18.9890965417
W 23.7363706771 26.9012201007 20.5715212535
W 22.1539459653 25.3187953889 22.1539459653
W 23.7363706771 26.9012201007 23.7363706771
W 22.1539459653 25.3187953889 25.3187953889
W 23.7363706771 26.9012201007 26.9012201007
W 22.1539459653 25.3187953889 28.4836448125
W 23.7363706771 26.9012201007 30.0660695243
W 22.1539459653 28.4836448125 0.0000000000
W 23.7363706771 30.0660695243 1.5824247118
W 22.1539459653 28.4836448125 3.1648494236
W 23.7363706771 30.0660695243 4.7472741354
W 22.1539459653 28.4836448125 6.3296988472
W 23.7363706771 30.0660695243 7.9121235590
W 22.1539459653 28.4836448125 9.4945482708
W 23.7363706771 30.0660695243 11.0769729826
W 22.1539459653 28.4836448125 12.6593976944
W 23.7363706771 30.0660695243 14.2418224063
W 22.1539459653 28.4836448125 15.8242471181
W 23.7363706771 30.0660695243 17.4066718299
W 22.1539459653 28.4836448125 18.9890965417
W 23.7363706771 30.0660695243 20.5715212535
W 22.1539459653 28.4836448125 22.1539459653
W 23.7363706771 30.0660695243 23.7363706771
W 22.1539459653 28.4836448125 25.3187953889
W 23.7363706771 30.0660695243 26.9012201007
W 22.1539459653 28.4836448125 28.4836448125
W 23.7363706771 30.0660695243 30.0660695243
W 25.3187953889 0.0000000000 0.0000000000
W 26.9012201007 1.5824247118 1.5824247118
W 25.3187953889 0.0000000000 3.1648494236
W 26.9012201007 1.5824247118 4.7472741354
W 25.3187953889 0.0000000000 6.3296988472
W 26.9012201007 1.5824247118 7.9121235590
W 25.3187953889 0.0000000000 9.4945482708
W 26.9012201007 1.5824247118 11.0769729826
W 25.3187953889 0.0000000000 12.6593976944
W 26.9012201007 1.5824247118 14.2418224063
W 25.3187953889 0.0000000000 15.8242471181
W 26.9012201007 1.5824247118 17.4066718299
W 25.3187953889 0.0000000000 18.9890965417
W 26.9012201007 1.5824247118 20.5715212535
W 25.3187953889 0.0000000000 22.1539459653
W 26.9012201007 1.5824247118 23.7363706771
W 25.3187953889 0.0000000000 25.3187953889
W 26.9012201007 1.5824247118 26.9012201007
W 25.3187953889 0.0000000000 28.4836448125
W 26.9012201007 1.5824247118 30.0660695243
W 25.3187953889 3.1648494236 0.0000000000
W 26.9012201007 4.7472741354 1.5824247118
W 25.3187953889 3.1648494236 3.1648494236
W 26.9012201007 4.7472741354 4.7472741354
W 25.3187953889 3.1648494236 6.3296988472
W 26.9012201007 4.7472741354 7.9121235590
W 25.3187953889 3.1648494236 9.4945482708
W 26.9012201007 4.7472741354 11.0769729826
W 25.3187953889 3.1648494236 12.6593976944
W 26.9012201007 4.7472741354 14.2418224063
W 25.3187953889 3.1648494236 15.8242471181
W 26.9012201007 4.7472741354 17.4066718299
W 25.3187953889 3.1648494236 18.9890965417
W 26.9012201007 4.7472741354 20.5715212535
W 25.3187953889 3.1648494236 22.1539459653
W 26.9012201007 4.7472741354 23.7363706771
W 25.3187953889 3.1648494236 25.3187953889
W 26.9012201007 4.7472741354 26.9012201007
W 25.3187953889 3.1648494236 28.4836448125
W 26.9012201007 4.7472741354 30.0660695243
W 25.3187953889 6.3296988472 0.0000000000
W 26.9012201007 7.9121235590 1.5824247118
W 25.3187953889 6.3296988472 3.1648494236
W 26.9012201007 7.9121235590 4.7472741354
W 25.3187953889 6.3296988472 6.3296988472
W 26.9012201007 7.9121235590 7.9121235590
W 25.3187953889 6.3296988472 9.4945482708
W 26.9012201007 7.9121235590 11.0769729826
W 25.3187953889 6.3296988472 12.6593976944
W 26.9012201007 7.9121235590 14.2418224063
W 25.3187953889 6.3296988472 15.8242471181
W 26.9012201007 7.9121235590 17.4066718299
W 25.3187953889 6.3296988472 18.9890965417
W 26.9012201007 7.9121235590 20.5715212535
W 25.3187953889 6.3296988472 22.1539459653
W 26.9012201007 7.9121235590 23.7363706771
W 25.3187953889 6.3296988472 25.3187953889
W 26.9012201007 7.9121235590 26.9012201007
W 25.3187953889 6.3296988472 28.4836448125
W 26.9012201007 7.9121235590 30.0660695243
W 25.3187953889 9.4945482708 0.0000000000
W 26.9012201007 11.0769729826 1.5824247118
W 25.3187953889 9.4945482708 3.1648494236
W 26.9012201007 11.0769729826 4.7472741354
W 25.3187953889 9.4945482708 6.3296988472
W 26.9012201007 11.0769729826 7.9121235590
W 25.3187953889 9.4945482708 9.4945482708
W 26.9012201007 11.0769729826 11.0769729826
W 25.3187953889 9.4945482708 12.6593976944
W 26.9012201007 11.0769729826 14.2418224063
W 25.3187953889 9.4945482708 15.8242471181
W 26.9012201007 11.0769729826 17.4066718299
W 25.3187953889 9.4945482708 18.9890965417
W 26.9012201007 11.0769729826 20.5715212535
W 25.3187953889 9.4945482708 22.1539459653
W 26.9012201007 11.0769729826 23.7363706771
W 25.3187953889 9.4945482708 25.3187953889
W 26.9012201007 11.0769729826 26.9012201007
W 25.3187953889 9.4945482708 28.4836448125
W 26.9012201007 11.0769729826 30.0660695243
W 25.3187953889 12.6593976944 0.0000000000
W 26.9012201007 14.2418224063 1.5824247118
W 25.3187953889 12.6593976944 3.1648494236
W 26.9012201007 14.2418224063 4.7472741354
W 25.3187953889 12.6593976944 6.3296988472
W 26.9012201007 14.2418224063 7.9121235590
W 25.3187953889 12.6593976944 9.4945482708
W 26.9012201007 14.2418224063 11.0769729826
W 25.3187953889 12.6593976944 12.6593976944
W 26.9012201007 14.2418224063 14.2418224063
W 25.3187953889 12.6593976944 15.8242471181
W 26.9012201007 14.2418224063 17.4066718299
W 25.3187953889 12.6593976944 18.9890965417
W 26.9012201007 14.2418224063 20.5715212535
W 25.3187953889 12.6593976944 22.1539459653
W 26.9012201007 14.2418224063 23.7363706771
W 25.3187953889 12.6593976944 25.3187953889
W 26.9012201007 14.2418224063 26.9012201007
W 25.3187953889 12.6593976944 28.4836448125
W 26.9012201007 14.2418224063 30.0660695243
W 25.3187953889 15.8242471181 0.0000000000
W 26.9012201007 17.4066718299 1.5824247118
W 25.3187953889 15.8242471181 3.1648494236
W 26.9012201007 17.4066718299 4.7472741354
W 25.3187953889 15.8242471181 6.3296988472
W 26.9012201007 17.4066718299 7.9121235590
W 25.3187953889 15.8242471181 9.4945482708
W 26.9012201007 17.4066718299 11.0769729826
W 25.3187953889 15.8242471181 12.6593976944
W 26.9012201007 17.4066718299 14.2418224063
W 25.3187953889 15.8242471181 15.8242471181
W 26.9012201007 17.4066718299 17.4066718299
W 25.3187953889 15.8242471181 18.9890965417
W 26.9012201007 17.4066718299 20.5715212535
W 25.3187953889 15.8242471181 22.1539459653
W 26.9012201007 17.4066718299 23.7363706771
W 25.3187953889 15.8242471181 25.3187953889
W 26.9012201007 17.4066718299 26.9012201007
W 25.3187953889 15.8242471181 28.4836448125
W 26.9012201007 17.4066718299 30.0660695243
W 25.3187953889 18.9890965417 0.0000000000
W 26.9012201007 20.5715212535 1.5824247118
W 25.3187953889 18.9890965417 3.1648494236
W 26.9012201007 20.5715212535 4.7472741354
W 25.3187953889 18.9890965417 6.3296988472
W 26.9012201007 20.5715212535 7.9121235590
W 25.3187953889 18.9890965417 9.4945482708
W 26.9012201007 20.5715212535 11.0769729826
W 25.3187953889 18.9890965417 12.6593976944
W 26.9012201007 20.5715212535 14.2418224063
W 25.3187953889 18.9890965417 15.8242471181
W 26.9012201007 20.5715212535 17.4066718299
W 25.3187953889 18.9890965417 18.9890965417
W 26.9012201007 20.5715212535 20.5715212535
W 25.3187953889 18.9890965417 22.1539459653
W 26.9012201007 20.5715212535 23.7363706771
W 25.3187953889 18.9890965417 25.3187953889
W 26.9012201007 20.5715212535 26.9012201007
W 25.3187953889 18.9890965417 28.4836448125
W 26.9012201007 20.5715212535 30.0660695243
W 25.3187953889 22.1539459653 0.0000000000
W 26.9012201007 23.7363706771 1.5824247118
W 25.3187953889 22.1539459653 3.1648494236
W 26.9012201007 23.7363706771 4.7472741354
W 25.3187953889 22.1539459653 6.3296988472
W 26.9012201007 23.7363706771 7.9121235590
W 25.3187953889 22.1539459653 9.4945482708
W 26.9012201007 23.7363706771 11.0769729826
W 25.3187953889 22.1539459653 12.6593976944
W 26.9012201007 23.7363706771 14.2418224063
W 25.3187953889 22.1539459653 15.8242471181
W 26.9012201007 23.7363706771 17.4066718299
W 25.3187953889 22.1539459653 18.9890965417
W 26.9012201007 23.7363706771 20.5715212535
W 25.3187953889 22.1539459653 22.1539459653
W 26.9012201007 23.7363706771 23.7363706771
W 25.3187953889 22.1539459653 25.3187953889
W 26.9012201007 23.7363706771 26.9012201007
W 25.3187953889 22.1539459653 28.4836448125
W 26.9012201007 23.7363706771 30.0660695243
W 25.3187953889 25.3187953889 0.0000000000
W 26.9012201007 26.9012201007 1.5824247118
W 25.3187953889 25.3187953889 3.1648494236
W 26.9012201007 26.9012201007 4.7472741354
W 25.3187953889 25.3187953889 6.3296988472
W 26.9012201007 26.9012201007 7.9121235590
W 25.3187953889 25.3187953889 9.4945482708
W 26.9012201007 26.9012201007 11.0769729826
W 25.3187953889 25.3187953889 12.6593976944
W 26.9012201007 26.9012201007 14.2418224063
W 25.3187953889 25.3187953889 15.8242471181
W 26.9012201007 26.9012201007 17.4066718299
W 25.3187953889 25.3187953889 18.9890965417
W 26.9012201007 26.9012201007 20.5715212535
W 25.3187953889 25.3187953889 22.1539459653
W 26.9012201007 26.9012201007 23.7363706771
W 25.3187953889 25.3187953889 25.3187953889
W 26.9012201007 26.9012201007 26.9012201007
W 25.3187953889 25.3187953889 28.4836448125
W 26.9012201007 26.9012201007 30.0660695243
W 25.3187953889 28.4836448125 0.0000000000
W 26.9012201007 30.0660695243 1.5824247118
W 25.3187953889 28.4836448125 3.1648494236
W 26.9012201007 30.0660695243 4.7472741354
W 25.3187953889 28.4836448125 6.3296988472
W 26.9012201007 30.0660695243 7.9121235590
W 25.3187953889 28.4836448125 9.4945482708
W 26.9012201007 30.0660695243 11.0769729826
W 25.3187953889 28.4836448125 12.6593976944
W 26.9012201007 30.0660695243 14.2418224063
W 25.3187953889 28.4836448125 15.8242471181
W 26.9012201007 30.0660695243 17.4066718299
W 25.3187953889 28.4836448125 18.9890965417
W 26.9012201007 30.0660695243 20.5715212535
W 25.3187953889 28.4836448125 22.1539459653
W 26.9012201007 30.0660695243 23.7363706771
W 25.3187953889 28.4836448125 25.3187953889
W 26.9012201007 30.0660695243 26.9012201007
W 25.3187953889 28.4836448125 28.4836448125
W 26.9012201007 30.0660695243 30.0660695243
W 28.4836448125 0.0000000000 0.0000000000
W 30.0660695243 1.5824247118 1.5824247118
W 28.4836448125 0.0000000000 3.1648494236
W 30.0660695243 1.5824247118 4.7472741354
W 28.4836448125 0.0000000000 6.3296988472
W 30.0660695243 1.5824247118 7.9121235590
W 28.4836448125 0.0000000000 9.4945482708
W 30.0660695243 1.5824247118 11.0769729826
W 28.4836448125 0.0000000000 12.6593976944
W 30.0660695243 1.5824247118 14.2418224063
W 28.4836448125 0.0000000000 15.8242471181
W 30.0660695243 1.5824247118 17.4066718299
W 28.4836448125 0.0000000000 18.9890965417
W 30.0660695243 1.5824247118 20.5715212535
W 28.4836448125 0.0000000000 22.1539459653
W 30.0660695243 1.5824247118 23.7363706771
W 28.4836448125 0.0000000000 25.3187953889
W 30.0660695243 1.5824247118 26.9012201007
W 28.4836448125 0.0000000000 28.4836448125
W 30.0660695243 1.5824247118 30.0660695243
W 28.4836448125 3.1648494236 0.0000000000
W 30.0660695243 4.7472741354 1.5824247118
W 28.4836448125 3.1648494236 3.1648494236
W 30.0660695243 4.7472741354 4.7472741354
W 28.4836448125 3.1648494236 6.3296988472
W 30.0660695243 4.7472741354 7.9121235590
W 28.4836448125 3.1648494236 9.4945482708
W 30.0660695243 4.7472741354 11.0769729826
W 28.4836448125 3.1648494236 12.6593976944
W 30.0660695243 4.7472741354 14.2418224063
W 28.4836448125 3.1648494236 15.8242471181
W 30.0660695243 4.7472741354 17.4066718299
W 28.4836448125 3.1648494236 18.9890965417
W 30.0660695243 4.7472741354 20.5715212535
W 28.4836448125 3.1648494236 22.1539459653
W 30.0660695243 4.7472741354 23.7363706771
W 28.4836448125 3.1648494236 25.3187953889
W 30.0660695243 4.7472741354 26.9012201007
W 28.4836448125 3.1648494236 28.4836448125
W 30.0660695243 4.7472741354 30.0660695243
W 28.4836448125 6.3296988472 0.0000000000
W 30.0660695243 7.9121235590 1.5824247118
W 28.4836448125 6.3296988472 3.1648494236
W 30.0660695243 7.9121235590 4.7472741354
W 28.4836448125 6.3296988472 6.3296988472
W 30.0660695243 7.9121235590 7.9121235590
W 28.4836448125 6.3296988472 9.4945482708
W 30.0660695243 7.9121235590 11.0769729826
W 28.4836448125 6.3296988472 12.6593976944
W 30.0660695243 7.9121235590 14.2418224063
W 28.4836448125 6.3296988472 15.8242471181
W 30.0660695243 7.9121235590 17.4066718299
W 28.4836448125 6.3296988472 18.9890965417
W 30.0660695243 7.9121235590 20.5715212535
W 28.4836448125 6.3296988472 22.1539459653
W 30.0660695243 7.9121235590 23.7363706771
W 28.4836448125 6.3296988472 25.3187953889
W 30.0660695243 7.9121235590 26.9012201007
W 28.4836448125 6.3296988472 28.4836448125
W 30.0660695243 7.9121235590 30.0660695243
W 28.4836448125 9.4945482708 0.0000000000
W 30.0660695243 11.0769729826 1.5824247118
W 28.4836448125 9.4945482708 3.1648494236
W 30.0660695243 11.0769729826 4.7472741354
W 28.4836448125 9.4945482708 6.3296988472
W 30.0660695243 11.0769729826 7.9121235590
W 28.4836448125 9.4945482708 9.4945482708
W 30.0660695243 11.0769729826 11.0769729826
W 28.4836448125 9.4945482708 12.6593976944
W 30.0660695243 11.0769729826 14.2418224063
W 28.4836448125 9.4945482708 15.8242471181
W 30.0660695243 11.0769729826 17.4066718299
W 28.4836448125 9.4945482708 18.9890965417
W 30.0660695243 11.0769729826 20.5715212535
W 28.4836448125 9.4945482708 22.1539459653
W 30.0660695243 11.0769729826 23.7363706771
W 28.4836448125 9.4945482708 25.3187953889
W 30.0660695243 11.0769729826 26.9012201007
W 28.4836448125 9.4945482708 28.4836448125
W 30.0660695243 11.0769729826 30.0660695243
W 28.4836448125 12.6593976944 0.0000000000
W 30.0660695243 14.2418224063 1.5824247118
W 28.4836448125 12.6593976944 3.1648494236
W 30.0660695243 14.2418224063 4.7472741354
W 28.4836448125 12.6593976944 6.3296988472
W 30.0660695243 14.2418224063 7.9121235590
W 28.4836448125 12.6593976944 9.4945482708
W 30.0660695243 14.2418224063 11.0769729826
W 28.4836448125 12.6593976944 12.6593976944
W 30.0660695243 14.2418224063 14.2418224063
W 28.4836448125 12.6593976944 15.8242471181
W 30.0660695243 14.2418224063 17.4066718299
W 28.4836448125 12.6593976944 18.9890965417
W 30.0660695243 14.2418224063 20.5715212535
W 28.4836448125 12.6593976944 22.1539459653
W 30.0660695243 14.2418224063 23.7363706771
W 28.4836448125 12.6593976944 25.3187953889
W 30.0660695243 14.2418224063 26.9012201007
W 28.4836448125 12.6593976944 28.4836448125
W 30.0660695243 14.2418224063 30.0660695243
W 28.4836448125 15.8242471181 0.0000000000
W 30.0660695243 17.4066718299 1.5824247118
W 28.4836448125 15.8242471181 3.1648494236
W 30.0660695243 17.4066718299 4.7472741354
W 28.4836448125 15.8242471181 6.3296988472
W 30.0660695243 17.4066718299 7.9121235590
W 28.4836448125 15.8242471181 9.4945482708
W 30.0660695243 17.4066718299 11.0769729826
W 28.4836448125 15.8242471181 12.6593976944
W 30.0660695243 17.4066718299 14.2418224063
W 28.4836448125 15.8242471181 15.8242471181
W 30.0660695243 17.4066718299 17.4066718299
W 28.4836448125 15.8242471181 18.9890965417
W 30.0660695243 17.4066718299 20.5715212535
W 28.4836448125 15.8242471181 22.1539459653
W 30.0660695243 17.4066718299 23.7363706771
W 28.4836448125 15.8242471181 25.3187953889
W 30.0660695243 17.4066718299 26.9012201007
W 28.4836448125 15.8242471181 28.4836448125
W 30.0660695243 17.4066718299 30.0660695243
W 28.4836448125 18.9890965417 0.0000000000
W 30.0660695243 20.5715212535 1.5824247118
W 28.4836448125 18.9890965417 3.1648494236
W 30.0660695243 20.5715212535 4.7472741354
W 28.4836448125 18.9890965417 6.3296988472
W 30.0660695243 20.5715212535 7.9121235590
W 28.4836448125 18.9890965417 9.4945482708
W 30.0660695243 20.5715212535 11.0769729826
W 28.4836448125 18.9890965417 12.6593976944
W 30.0660695243 20.5715212535 14.2418224063
W 28.4836448125 18.9890965417 15.8242471181
W 30.0660695243 20.5715212535 17.4066718299
W 28.4836448125 18.9890965417 18.9890965417
W 30.0660695243 20.5715212535 20.5715212535
W 28.4836448125 18.9890965417 22.1539459653
W 30.0660695243 20.5715212535 23.7363706771
W 28.4836448125 18.9890965417 25.3187953889
W 30.0660695243 20.5715212535 26.9012201007
W 28.4836448125 18.9890965417 28.4836448125
W 30.0660695243 20.5715212535 30.0660695243
W 28.4836448125 22.1539459653 0.0000000000
W 30.0660695243 23.7363706771 1.5824247118
W 28.4836448125 22.1539459653 3.1648494236
W 30.0660695243 23.7363706771 4.7472741354
W 28.4836448125 22.1539459653 6.3296988472
W 30.0660695243 23.7363706771 7.9121235590
W 28.4836448125 22.1539459653 9.4945482708
W 30.0660695243 23.7363706771 11.0769729826
W 28.4836448125 22.1539459653 12.6593976944
W 30.0660695243 23.7363706771 14.2418224063
W 28.4836448125 22.1539459653 15.8242471181
W 30.0660695243 23.7363706771 17.4066718299
W 28.4836448125 22.1539459653 18.9890965417
W 30.0660695243 23.7363706771 20.5715212535
W 28.4836448125 22.1539459653 22.1539459653
W 30.0660695243 23.7363706771 23.7363706771
W 28.4836448125 22.1539459653 25.3187953889
W 30.0660695243 23.7363706771 26.9012201007
W 28.4836448125 22.1539459653 28.4836448125
W 30.0660695243 23.7363706771 30.0660695243
W 28.4836448125 25.3187953889 0.0000000000
W 30.0660695243 26.9012201007 1.5824247118
W 28.4836448125 25.3187953889 3.1648494236
W 30.0660695243 26.9012201007 4.7472741354
W 28.4836448125 25.3187953889 6.3296988472
W 30.0660695243 26.9012201007 7.9121235590
W 28.4836448125 25.3187953889 9.4945482708
W 30.0660695243 26.9012201007 11.0769729826
W 28.4836448125 25.3187953889 12.6593976944
W 30.0660695243 26.9012201007 14.2418224063
W 28.4836448125 25.3187953889 15.8242471181
W 30.0660695243 26.9012201007 17.4066718299
W 28.4836448125 25.3187953889 18.9890965417
W 30.0660695243 26.9012201007 20.5715212535
W 28.4836448125 25.3187953889 22.1539459653
W 30.0660695243 26.9012201007 23.7363706771
W 28.4836448125 25.3187953889 25.3187953889
W 30.0660695243 26.9012201007 26.9012201007
W 28.4836448125 25.3187953889 28.4836448125
W 30.0660695243 26.9012201007 30.0660695243
W 28.4836448125 28.4836448125 0.0000000000
W 30.0660695243 30.0660695243 1.5824247118
W 28.4836448125 28.4836448125 3.1648494236
W 30.0660695243 30.0660695243 4.7472741354
W 28.4836448125 28.4836448125 6.3296988472
W 30.0660695243 30.0660695243 7.9121235590
W 28.4836448125 28.4836448125 9.4945482708
W 30.0660695243 30.0660695243 11.0769729826
W 28.4836448125 28.4836448125 12.6593976944
W 30.0660695243 30.0660695243 14.2418224063
W 28.4836448125 28.4836448125 15.8242471181
W 30.0660695243 30.0660695243 17.4066718299
W 28.4836448125 28.4836448125 18.9890965417
W 30.0660695243 30.0660695243 20.5715212535
W 28.4836448125 28.4836448125 22.1539459653
W 30.0660695243 30.0660695243 23.7363706771
W 28.4836448125 28.4836448125 25.3187953889
W 30.0660695243 30.0660695243 26.9012201007
W 28.4836448125 28.4836448125 28.4836448125
W 30.0660695243 30.0660695243 30.0660695243
