192
Lattice="13.085272 0.0 0.0 0.0 13.085272 0.0 0.0 0.0 13.085272" Properties=species:S:1:pos:R:3 pbc="T T T"
Li 11.04475 0.95246 1.42301
Li 1.97431 12.82771 10.5341
Li 10.44879 11.9805 5.84018
Li 2.11745 0.58288 8.347189999999999
Li 9.242089999999999 0.79231 11.07857
Li 1.82653 10.90018 1.19828
Li 3.29324 4.92377 0.10391
Li 10.75129 7.68032 12.03842
Li 4.03368 7.26061 7.75561
Li 10.92442 5.56216 7.96627
Li 4.31351 0.89756 4.80035
Li 4.14222 5.57816 11.01459
Li 9.006830000000001 5.66448 5.26328
Li 8.96532 7.58757 1.59831
Li 2.26042 7.08605 4.55453
Li 8.89228 12.18122 8.30247
Li 0.96885 5.26177 4.20163
Li 12.27676 8.47207 8.736829999999999
Li 7.56262 4.74035 2.43476
Li 11.78047 12.13934 2.69308
Li 11.7681 2.46175 12.12886
Li 6.39666 3.50141 7.94328
Li 5.35171 11.74121 4.34748
Li 8.124040000000001 8.66976 12.07237
Li 0.65494 1.9663 10.74547
Li 5.30811 5.93293 9.40823
Li 0.92883 10.75014 8.59205
Li 5.58199 7.85351 10.61481
Li 5.57857 1.58634 2.56344
Li 2.47775 5.59558 2.09349
Li 12.07163 4.53853 10.71539
Li 7.58922 1.79339 8.887790000000001
Li 3.68163 11.19524 12.80657
Li 9.466100000000001 1.69757 13.07724
Li 6.1379 10.10845 11.81654
Li 7.51348 2.72849 1.00094
Li 1.00252 7.60643 2.65782
Li 1.51419 3.98339 12.06928
Li 1.93708 2.15743 5.8031
Li 11.78013 10.50206 7.50519
Li 6.32609 9.638059999999999 4.98592
Li 11.82053 1.3231 4.27678
Li 7.62529 7.94336 3.91607
Li 13.0744 3.30944 4.78684
Li 11.34149 6.68338 10.12994
Li 7.82313 12.38957 10.18894
Li 4.36012 12.47959 2.19481
Li 0.06128 9.40446 1.47082
Li 8.60223 4.16413 7.30145
Li 3.97951 8.84291 5.87386
Li 10.80997 4.23909 5.98116
Li 1.99431 8.754490000000001 7.43332
Li 4.4083 2.10378 7.46347
Li 8.29505 10.63766 5.87636
Li 11.0781 8.882389999999999 0.8750599999999999
Li 5.3634 3.97466 1.19149
La 0.10455 3.08701 1.73212
La 0.05184 9.8307 11.54152
La 6.64543 3.34532 11.26805
La 12.93403 3.11074 8.18253
La 12.89255 9.917260000000001 4.79125
La 6.75328 3.28845 5.00379
La 6.3716 9.874359999999999 1.67864
La 6.48604 9.66797 8.241339999999999
La 1.59619 0.01982 3.4722
La 11.47915 12.98995 9.870229999999999
La 5.08367 0.1247 9.871560000000001
La 1.54214 6.73842 9.810449999999999
La 8.205870000000001 12.98767 3.12427
La 4.87484 6.53272 3.33338
La 11.5476 6.5042 3.20673
La 8.47753 6.65557 9.64583
La 3.49259 1.5712 12.96689
La 9.74831 11.36237 12.9954
La 3.24063 11.61803 6.6664
La 3.3704 8.155720000000001 12.98008
La 9.90325 4.89729 0.07943
La 9.666090000000001 1.50823 6.70065
La 3.09443 4.77195 6.65913
La 9.83882 8.19398 6.34723
Zr 0.03284 13.0761 0.02026
Zr 9.72958 3.22063 9.90161
Zr 0.08791 6.58113 13.08511
Zr 3.15854 3.2324 9.702310000000001
Zr 12.87294 12.9867 6.50572
Zr 3.32379 3.16558 3.32704
Zr 6.57483 12.98298 13.03947
Zr 3.35182 9.696059999999999 9.773820000000001
Zr 6.51452 6.57247 6.4796
Zr 2.99356 9.728490000000001 3.31504
Zr 6.5127 13.07449 6.55074
Zr 9.69505 9.87214 3.22077
Zr 6.56084 6.48353 0.21232
Zr 9.89489 9.7951 9.657069999999999
Zr 0.14535 6.74446 6.51804
Zr 9.8925 3.23953 3.24886
O 0.10063 0.8000699999999999 8.470179999999999
O 12.44381 12.40492 4.58819
O 9.175990000000001 3.73424 5.26631
O 10.69407 2.89916 1.17018
O 12.60372 5.95437 8.52469
O 0.33209 7.20873 4.57278
O 3.77511 2.9113 5.29001
O 2.5571 3.53561 1.32364
O 0.21742 12.32001 11.13061
O 12.63531 0.65163 2.01494
O 2.50268 2.76479 7.87097
O 3.75248 3.61591 11.55258
O 6.27687 0.76534 4.48428
O 7.02432 12.43821 8.454280000000001
O 3.84242 10.33082 1.41457
O 2.15041 9.163180000000001 5.16634
O 8.361890000000001 0.56395 0.80579
O 4.68747 12.73525 12.2324
O 11.6696 2.69 10.28389
O 7.96251 3.85421 9.129440000000001
O 8.62077 12.66677 5.69934
O 4.64019 0.39996 7.19755
O 11.78297 10.4433 9.373710000000001
O 8.0357 8.904310000000001 10.01345
O 10.87418 0.31848 12.50698
O 1.92011 12.61751 0.64209
O 7.93265 2.73417 2.85457
O 12.00122 4.16456 3.55837
O 4.564 6.26156 0.88748
O 8.364050000000001 6.92825 12.68331
O 1.25783 3.72628 10.11437
O 5.20073 2.50473 9.462429999999999
O 0.99298 8.402049999999999 0.49609
O 12.61613 4.39682 12.89144
O 3.73789 5.25808 8.822900000000001
O 2.90761 1.2426 10.22032
O 5.93141 8.62148 12.49573
O 7.35683 4.54718 0.53104
O 9.56174 11.78488 10.44025
O 10.39009 7.89591 8.87252
O 12.44135 11.11429 0.30678
O 0.81757 1.85138 12.8272
O 2.8711 7.77817 2.6327
O 3.47639 11.88792 4.15894
O 0.81362 4.76248 6.03601
O 12.30595 8.656230000000001 6.88635
O 3.68166 7.74685 10.61239
O 2.6712 11.60039 8.82558
O 6.6949 7.43599 2.05999
O 6.2722 5.88311 11.11419
O 2.69269 10.07894 11.62039
O 4.01311 9.30729 7.76959
O 6.18088 12.44791 1.90648
O 7.0189 0.73671 11.14299
O 10.36901 9.450390000000001 11.63761
O 8.931100000000001 10.19201 7.83291
O 6.9028 5.8153 4.44996
O 6.22931 7.39742 8.568519999999999
O 9.238239999999999 9.41207 1.21666
O 10.36588 10.23657 5.07528
O 12.46108 7.31749 11.24327
O 0.49731 6.1572 1.94064
O 10.50264 3.65158 7.88236
O 9.02421 2.92185 11.74859
O 2.0469 6.87365 7.17927
O 11.22622 6.21673 6.41437
O 4.98797 9.080500000000001 3.71314
O 1.23512 10.59385 2.78638
O 2.04273 6.15895 12.07233
O 11.08503 7.01182 0.58048
O 5.28167 3.77112 3.26594
O 1.15059 2.35842 3.93724
O 4.50823 6.9962 5.94359
O 8.51821 6.15139 7.26257
O 1.29258 9.14855 9.54862
O 5.06637 10.50948 10.10213
O 10.90347 12.68003 7.38999
O 1.86674 0.3675 6.30964
O 7.6507 10.40464 3.58199
O 11.76458 9.16173 2.72619
O 7.32464 1.99974 6.96021
O 6.0129 11.26748 6.0092
O 10.08639 11.67997 2.47613
O 9.40128 7.84789 4.11367
O 12.1002 1.91322 6.04089
O 0.15769 11.13312 6.81122
O 2.80915 5.09137 3.81798
O 3.73624 1.10783 2.75821
O 5.73147 4.72645 6.986
O 7.29081 8.39705 6.00409
O 9.32835 1.26638 9.13869
O 10.19447 5.34518 10.67582
O 7.31638 11.20447 12.35352
O 5.82134 2.03099 0.26841
O 10.2298 1.22218 3.68485
O 9.619590000000001 5.22157 2.47706
