2048
Lattice="25.5703280000 0 0 0 44.2891072622 0 0 0 41.7561707704" Properties=species:S:1:pos:R:3 pbc="T T T" case=zhou_mg_hcp
Mg 0.0000000000 0.0000000000 0.0000000000
Mg 1.5981455000 2.7680692039 0.0000000000
Mg 1.5981455000 0.9226897346 2.6097606732
Mg 0.0000000000 3.6907589385 2.6097606732
Mg 0.0000000000 0.0000000000 5.2195213463
Mg 1.5981455000 2.7680692039 5.2195213463
Mg 1.5981455000 0.9226897346 7.8292820195
Mg 0.0000000000 3.6907589385 7.8292820195
Mg 0.0000000000 0.0000000000 10.4390426926
Mg 1.5981455000 2.7680692039 10.4390426926
Mg 1.5981455000 0.9226897346 13.0488033658
Mg 0.0000000000 3.6907589385 13.0488033658
Mg 0.0000000000 0.0000000000 15.6585640389
Mg 1.5981455000 2.7680692039 15.6585640389
Mg 1.5981455000 0.9226897346 18.2683247121
Mg 0.0000000000 3.6907589385 18.2683247121
Mg 0.0000000000 0.0000000000 20.8780853852
Mg 1.5981455000 2.7680692039 20.8780853852
Mg 1.5981455000 0.9226897346 23.4878460584
Mg 0.0000000000 3.6907589385 23.4878460584
Mg 0.0000000000 0.0000000000 26.0976067315
Mg 1.5981455000 2.7680692039 26.0976067315
Mg 1.5981455000 0.9226897346 28.7073674047
Mg 0.0000000000 3.6907589385 28.7073674047
Mg 0.0000000000 0.0000000000 31.3171280778
Mg 1.5981455000 2.7680692039 31.3171280778
Mg 1.5981455000 0.9226897346 33.9268887510
Mg 0.0000000000 3.6907589385 33.9268887510
Mg 0.0000000000 0.0000000000 36.5366494241
Mg 1.5981455000 2.7680692039 36.5366494241
Mg 1.5981455000 0.9226897346 39.1464100973
Mg 0.0000000000 3.6907589385 39.1464100973
Mg 0.0000000000 5.5361384078 0.0000000000
Mg 1.5981455000 8.3042076117 0.0000000000
Mg 1.5981455000 6.4588281424 2.6097606732
Mg 0.0000000000 9.2268973463 2.6097606732
Mg 0.0000000000 5.5361384078 5.2195213463
Mg 1.5981455000 8.3042076117 5.2195213463
Mg 1.5981455000 6.4588281424 7.8292820195
Mg 0.0000000000 9.2268973463 7.8292820195
Mg 0.0000000000 5.5361384078 10.4390426926
Mg 1.5981455000 8.3042076117 10.4390426926
Mg 1.5981455000 6.4588281424 13.0488033658
Mg 0.0000000000 9.2268973463 13.0488033658
Mg 0.0000000000 5.5361384078 15.6585640389
Mg 1.5981455000 8.3042076117 15.6585640389
Mg 1.5981455000 6.4588281424 18.2683247121
Mg 0.0000000000 9.2268973463 18.2683247121
Mg 0.0000000000 5.5361384078 20.8780853852
Mg 1.5981455000 8.3042076117 20.8780853852
Mg 1.5981455000 6.4588281424 23.4878460584
Mg 0.0000000000 9.2268973463 23.4878460584
Mg 0.0000000000 5.5361384078 26.0976067315
Mg 1.5981455000 8.3042076117 26.0976067315
Mg 1.5981455000 6.4588281424 28.7073674047
Mg 0.0000000000 9.2268973463 28.7073674047
Mg 0.0000000000 5.5361384078 31.3171280778
Mg 1.5981455000 8.3042076117 31.3171280778
Mg 1.5981455000 6.4588281424 33.9268887510
Mg 0.0000000000 9.2268973463 33.9268887510
Mg 0.0000000000 5.5361384078 36.5366494241
Mg 1.5981455000 8.3042076117 36.5366494241
Mg 1.5981455000 6.4588281424 39.1464100973
Mg 0.0000000000 9.2268973463 39.1464100973
Mg 0.0000000000 11.0722768156 0.0000000000
Mg 1.5981455000 13.8403460194 0.0000000000
Mg 1.5981455000 11.9949665502 2.6097606732
Mg 0.0000000000 14.7630357541 2.6097606732
Mg 0.0000000000 11.0722768156 5.2195213463
Mg 1.5981455000 13.8403460194 5.2195213463
Mg 1.5981455000 11.9949665502 7.8292820195
Mg 0.0000000000 14.7630357541 7.8292820195
Mg 0.0000000000 11.0722768156 10.4390426926
Mg 1.5981455000 13.8403460194 10.4390426926
Mg 1.5981455000 11.9949665502 13.0488033658
Mg 0.0000000000 14.7630357541 13.0488033658
Mg 0.0000000000 11.0722768156 15.6585640389
Mg 1.5981455000 13.8403460194 15.6585640389
Mg 1.5981455000 11.9949665502 18.2683247121
Mg 0.0000000000 14.7630357541 18.2683247121
Mg 0.0000000000 11.0722768156 20.8780853852
Mg 1.5981455000 13.8403460194 20.8780853852
Mg 1.5981455000 11.9949665502 23.4878460584
Mg 0.0000000000 14.7630357541 23.4878460584
Mg 0.0000000000 11.0722768156 26.0976067315
Mg 1.5981455000 13.8403460194 26.0976067315
Mg 1.5981455000 11.9949665502 28.7073674047
Mg 0.0000000000 14.7630357541 28.7073674047
Mg 0.0000000000 11.0722768156 31.3171280778
Mg 1.5981455000 13.8403460194 31.3171280778
Mg 1.5981455000 11.9949665502 33.9268887510
Mg 0.0000000000 14.7630357541 33.9268887510
Mg 0.0000000000 11.0722768156 36.5366494241
Mg 1.5981455000 13.8403460194 36.5366494241
Mg 1.5981455000 11.9949665502 39.1464100973
Mg 0.0000000000 14.7630357541 39.1464100973
Mg 0.0000000000 16.6084152233 0.0000000000
Mg 1.5981455000 19.3764844272 0.0000000000
Mg 1.5981455000 17.5311049580 2.6097606732
Mg 0.0000000000 20.2991741618 2.6097606732
Mg 0.0000000000 16.6084152233 5.2195213463
Mg 1.5981455000 19.3764844272 5.2195213463
Mg 1.5981455000 17.5311049580 7.8292820195
Mg 0.0000000000 20.2991741618 7.8292820195
Mg 0.0000000000 16.6084152233 10.4390426926
Mg 1.5981455000 19.3764844272 10.4390426926
Mg 1.5981455000 17.5311049580 13.0488033658
Mg 0.0000000000 20.2991741618 13.0488033658
Mg 0.0000000000 16.6084152233 15.6585640389
Mg 1.5981455000 19.3764844272 15.6585640389
Mg 1.5981455000 17.5311049580 18.2683247121
Mg 0.0000000000 20.2991741618 18.2683247121
Mg 0.0000000000 16.6084152233 20.8780853852
Mg 1.5981455000 19.3764844272 20.8780853852
Mg 1.5981455000 17.5311049580 23.4878460584
Mg 0.0000000000 20.2991741618 23.4878460584
Mg 0.0000000000 16.6084152233 26.0976067315
Mg 1.5981455000 19.3764844272 26.0976067315
Mg 1.5981455000 17.5311049580 28.7073674047
Mg 0.0000000000 20.2991741618 28.7073674047
Mg 0.0000000000 16.6084152233 31.3171280778
Mg 1.5981455000 19.3764844272 31.3171280778
Mg 1.5981455000 17.5311049580 33.9268887510
Mg 0.0000000000 20.2991741618 33.9268887510
Mg 0.0000000000 16.6084152233 36.5366494241
Mg 1.5981455000 19.3764844272 36.5366494241
Mg 1.5981455000 17.5311049580 39.1464100973
Mg 0.0000000000 20.2991741618 39.1464100973
Mg 0.0000000000 22.1445536311 0.0000000000
Mg 1.5981455000 24.9126228350 0.0000000000
Mg 1.5981455000 23.0672433657 2.6097606732
Mg 0.0000000000 25.8353125696 2.6097606732
Mg 0.0000000000 22.1445536311 5.2195213463
Mg 1.5981455000 24.9126228350 5.2195213463
Mg 1.5981455000 23.0672433657 7.8292820195
Mg 0.0000000000 25.8353125696 7.8292820195
Mg 0.0000000000 22.1445536311 10.4390426926
Mg 1.5981455000 24.9126228350 10.4390426926
Mg 1.5981455000 23.0672433657 13.0488033658
Mg 0.0000000000 25.8353125696 13.0488033658
Mg 0.0000000000 22.1445536311 15.6585640389
Mg 1.5981455000 24.9126228350 15.6585640389
Mg 1.5981455000 23.0672433657 18.2683247121
Mg 0.0000000000 25.8353125696 18.2683247121
Mg 0.0000000000 22.1445536311 20.8780853852
Mg 1.5981455000 24.9126228350 20.8780853852
Mg 1.5981455000 23.0672433657 23.4878460584
Mg 0.0000000000 25.8353125696 23.4878460584
Mg 0.0000000000 22.1445536311 26.0976067315
Mg 1.5981455000 24.9126228350 26.0976067315
Mg 1.5981455000 23.0672433657 28.7073674047
Mg 0.0000000000 25.8353125696 28.7073674047
Mg 0.0000000000 22.1445536311 31.3171280778
Mg 1.5981455000 24.9126228350 31.3171280778
Mg 1.5981455000 23.0672433657 33.9268887510
Mg 0.0000000000 25.8353125696 33.9268887510
Mg 0.0000000000 22.1445536311 36.5366494241
Mg 1.5981455000 24.9126228350 36.5366494241
Mg 1.5981455000 23.0672433657 39.1464100973
Mg 0.0000000000 25.8353125696 39.1464100973
Mg 0.0000000000 27.6806920389 0.0000000000
Mg 1.5981455000 30.4487612428 0.0000000000
Mg 1.5981455000 28.6033817735 2.6097606732
Mg 0.0000000000 31.3714509774 2.6097606732
Mg 0.0000000000 27.6806920389 5.2195213463
Mg 1.5981455000 30.4487612428 5.2195213463
Mg 1.5981455000 28.6033817735 7.8292820195
Mg 0.0000000000 31.3714509774 7.8292820195
Mg 0.0000000000 27.6806920389 10.4390426926
Mg 1.5981455000 30.4487612428 10.4390426926
Mg 1.5981455000 28.6033817735 13.0488033658
Mg 0.0000000000 31.3714509774 13.0488033658
Mg 0.0000000000 27.6806920389 15.6585640389
Mg 1.5981455000 30.4487612428 15.6585640389
Mg 1.5981455000 28.6033817735 18.2683247121
Mg 0.0000000000 31.3714509774 18.2683247121
Mg 0.0000000000 27.6806920389 20.8780853852
Mg 1.5981455000 30.4487612428 20.8780853852
Mg 1.5981455000 28.6033817735 23.4878460584
Mg 0.0000000000 31.3714509774 23.4878460584
Mg 0.0000000000 27.6806920389 26.0976067315
Mg 1.5981455000 30.4487612428 26.0976067315
Mg 1.5981455000 28.6033817735 28.7073674047
Mg 0.0000000000 31.3714509774 28.7073674047
Mg 0.0000000000 27.6806920389 31.3171280778
Mg 1.5981455000 30.4487612428 31.3171280778
Mg 1.5981455000 28.6033817735 33.9268887510
Mg 0.0000000000 31.3714509774 33.9268887510
Mg 0.0000000000 27.6806920389 36.5366494241
Mg 1.5981455000 30.4487612428 36.5366494241
Mg 1.5981455000 28.6033817735 39.1464100973
Mg 0.0000000000 31.3714509774 39.1464100973
Mg 0.0000000000 33.2168304467 0.0000000000
Mg 1.5981455000 35.9848996505 0.0000000000
Mg 1.5981455000 34.1395201813 2.6097606732
Mg 0.0000000000 36.9075893852 2.6097606732
Mg 0.0000000000 33.2168304467 5.2195213463
Mg 1.5981455000 35.9848996505 5.2195213463
Mg 1.5981455000 34.1395201813 7.8292820195
Mg 0.0000000000 36.9075893852 7.8292820195
Mg 0.0000000000 33.2168304467 10.4390426926
Mg 1.5981455000 35.9848996505 10.4390426926
Mg 1.5981455000 34.1395201813 13.0488033658
Mg 0.0000000000 36.9075893852 13.0488033658
Mg 0.0000000000 33.2168304467 15.6585640389
Mg 1.5981455000 35.9848996505 15.6585640389
Mg 1.5981455000 34.1395201813 18.2683247121
Mg 0.0000000000 36.9075893852 18.2683247121
Mg 0.0000000000 33.2168304467 20.8780853852
Mg 1.5981455000 35.9848996505 20.8780853852
Mg 1.5981455000 34.1395201813 23.4878460584
Mg 0.0000000000 36.9075893852 23.4878460584
Mg 0.0000000000 33.2168304467 26.0976067315
Mg 1.5981455000 35.9848996505 26.0976067315
Mg 1.5981455000 34.1395201813 28.7073674047
Mg 0.0000000000 36.9075893852 28.7073674047
Mg 0.0000000000 33.2168304467 31.3171280778
Mg 1.5981455000 35.9848996505 31.3171280778
Mg 1.5981455000 34.1395201813 33.9268887510
Mg 0.0000000000 36.9075893852 33.9268887510
Mg 0.0000000000 33.2168304467 36.5366494241
Mg 1.5981455000 35.9848996505 36.5366494241
Mg 1.5981455000 34.1395201813 39.1464100973
Mg 0.0000000000 36.9075893852 39.1464100973
Mg 0.0000000000 38.7529688544 0.0000000000
Mg 1.5981455000 41.5210380583 0.0000000000
Mg 1.5981455000 39.6756585891 2.6097606732
Mg 0.0000000000 42.4437277929 2.6097606732
Mg 0.0000000000 38.7529688544 5.2195213463
Mg 1.5981455000 41.5210380583 5.2195213463
Mg 1.5981455000 39.6756585891 7.8292820195
Mg 0.0000000000 42.4437277929 7.8292820195
Mg 0.0000000000 38.7529688544 10.4390426926
Mg 1.5981455000 41.5210380583 10.4390426926
Mg 1.5981455000 39.6756585891 13.0488033658
Mg 0.0000000000 42.4437277929 13.0488033658
Mg 0.0000000000 38.7529688544 15.6585640389
Mg 1.5981455000 41.5210380583 15.6585640389
Mg 1.5981455000 39.6756585891 18.2683247121
Mg 0.0000000000 42.4437277929 18.2683247121
Mg 0.0000000000 38.7529688544 20.8780853852
Mg 1.5981455000 41.5210380583 20.8780853852
Mg 1.5981455000 39.6756585891 23.4878460584
Mg 0.0000000000 42.4437277929 23.4878460584
Mg 0.0000000000 38.7529688544 26.0976067315
Mg 1.5981455000 41.5210380583 26.0976067315
Mg 1.5981455000 39.6756585891 28.7073674047
Mg 0.0000000000 42.4437277929 28.7073674047
Mg 0.0000000000 38.7529688544 31.3171280778
Mg 1.5981455000 41.5210380583 31.3171280778
Mg 1.5981455000 39.6756585891 33.9268887510
Mg 0.0000000000 42.4437277929 33.9268887510
Mg 0.0000000000 38.7529688544 36.5366494241
Mg 1.5981455000 41.5210380583 36.5366494241
Mg 1.5981455000 39.6756585891 39.1464100973
Mg 0.0000000000 42.4437277929 39.1464100973
Mg 3.1962910000 0.0000000000 0.0000000000
Mg 4.7944365000 2.7680692039 0.0000000000
Mg 4.7944365000 0.9226897346 2.6097606732
Mg 3.1962910000 3.6907589385 2.6097606732
Mg 3.1962910000 0.0000000000 5.2195213463
Mg 4.7944365000 2.7680692039 5.2195213463
Mg 4.7944365000 0.9226897346 7.8292820195
Mg 3.1962910000 3.6907589385 7.8292820195
Mg 3.1962910000 0.0000000000 10.4390426926
Mg 4.7944365000 2.7680692039 10.4390426926
Mg 4.7944365000 0.9226897346 13.0488033658
Mg 3.1962910000 3.6907589385 13.0488033658
Mg 3.1962910000 0.0000000000 15.6585640389
Mg 4.7944365000 2.7680692039 15.6585640389
Mg 4.7944365000 0.9226897346 18.2683247121
Mg 3.1962910000 3.6907589385 18.2683247121
Mg 3.1962910000 0.0000000000 20.8780853852
Mg 4.7944365000 2.7680692039 20.8780853852
Mg 4.7944365000 0.9226897346 23.4878460584
Mg 3.1962910000 3.6907589385 23.4878460584
Mg 3.1962910000 0.0000000000 26.0976067315
Mg 4.7944365000 2.7680692039 26.0976067315
Mg 4.7944365000 0.9226897346 28.7073674047
Mg 3.1962910000 3.6907589385 28.7073674047
Mg 3.1962910000 0.0000000000 31.3171280778
Mg 4.7944365000 2.7680692039 31.3171280778
Mg 4.7944365000 0.9226897346 33.9268887510
Mg 3.1962910000 3.6907589385 33.9268887510
Mg 3.1962910000 0.0000000000 36.5366494241
Mg 4.7944365000 2.7680692039 36.5366494241
Mg 4.7944365000 0.9226897346 39.1464100973
Mg 3.1962910000 3.6907589385 39.1464100973
Mg 3.1962910000 5.5361384078 0.0000000000
Mg 4.7944365000 8.3042076117 0.0000000000
Mg 4.7944365000 6.4588281424 2.6097606732
Mg 3.1962910000 9.2268973463 2.6097606732
Mg 3.1962910000 5.5361384078 5.2195213463
Mg 4.7944365000 8.3042076117 5.2195213463
Mg 4.7944365000 6.4588281424 7.8292820195
Mg 3.1962910000 9.2268973463 7.8292820195
Mg 3.1962910000 5.5361384078 10.4390426926
Mg 4.7944365000 8.3042076117 10.4390426926
Mg 4.7944365000 6.4588281424 13.0488033658
Mg 3.1962910000 9.2268973463 13.0488033658
Mg 3.1962910000 5.5361384078 15.6585640389
Mg 4.7944365000 8.3042076117 15.6585640389
Mg 4.7944365000 6.4588281424 18.2683247121
Mg 3.1962910000 9.2268973463 18.2683247121
Mg 3.1962910000 5.5361384078 20.8780853852
Mg 4.7944365000 8.3042076117 20.8780853852
Mg 4.7944365000 6.4588281424 23.4878460584
Mg 3.1962910000 9.2268973463 23.4878460584
Mg 3.1962910000 5.5361384078 26.0976067315
Mg 4.7944365000 8.3042076117 26.0976067315
Mg 4.7944365000 6.4588281424 28.7073674047
Mg 3.1962910000 9.2268973463 28.7073674047
Mg 3.1962910000 5.5361384078 31.3171280778
Mg 4.7944365000 8.3042076117 31.3171280778
Mg 4.7944365000 6.4588281424 33.9268887510
Mg 3.1962910000 9.2268973463 33.9268887510
Mg 3.1962910000 5.5361384078 36.5366494241
Mg 4.7944365000 8.3042076117 36.5366494241
Mg 4.7944365000 6.4588281424 39.1464100973
Mg 3.1962910000 9.2268973463 39.1464100973
Mg 3.1962910000 11.0722768156 0.0000000000
Mg 4.7944365000 13.8403460194 0.0000000000
Mg 4.7944365000 11.9949665502 2.6097606732
Mg 3.1962910000 14.7630357541 2.6097606732
Mg 3.1962910000 11.0722768156 5.2195213463
Mg 4.7944365000 13.8403460194 5.2195213463
Mg 4.7944365000 11.9949665502 7.8292820195
Mg 3.1962910000 14.7630357541 7.8292820195
Mg 3.1962910000 11.0722768156 10.4390426926
Mg 4.7944365000 13.8403460194 10.4390426926
Mg 4.7944365000 11.9949665502 13.0488033658
Mg 3.1962910000 14.7630357541 13.0488033658
Mg 3.1962910000 11.0722768156 15.6585640389
Mg 4.7944365000 13.8403460194 15.6585640389
Mg 4.7944365000 11.9949665502 18.2683247121
Mg 3.1962910000 14.7630357541 18.2683247121
Mg 3.1962910000 11.0722768156 20.8780853852
Mg 4.7944365000 13.8403460194 20.8780853852
Mg 4.7944365000 11.9949665502 23.4878460584
Mg 3.1962910000 14.7630357541 23.4878460584
Mg 3.1962910000 11.0722768156 26.0976067315
Mg 4.7944365000 13.8403460194 26.0976067315
Mg 4.7944365000 11.9949665502 28.7073674047
Mg 3.1962910000 14.7630357541 28.7073674047
Mg 3.1962910000 11.0722768156 31.3171280778
Mg 4.7944365000 13.8403460194 31.3171280778
Mg 4.7944365000 11.9949665502 33.9268887510
Mg 3.1962910000 14.7630357541 33.9268887510
Mg 3.1962910000 11.0722768156 36.5366494241
Mg 4.7944365000 13.8403460194 36.5366494241
Mg 4.7944365000 11.9949665502 39.1464100973
Mg 3.1962910000 14.7630357541 39.1464100973
Mg 3.1962910000 16.6084152233 0.0000000000
Mg 4.7944365000 19.3764844272 0.0000000000
Mg 4.7944365000 17.5311049580 2.6097606732
Mg 3.1962910000 20.2991741618 2.6097606732
Mg 3.1962910000 16.6084152233 5.2195213463
Mg 4.7944365000 19.3764844272 5.2195213463
Mg 4.7944365000 17.5311049580 7.8292820195
Mg 3.1962910000 20.2991741618 7.8292820195
Mg 3.1962910000 16.6084152233 10.4390426926
Mg 4.7944365000 19.3764844272 10.4390426926
Mg 4.7944365000 17.5311049580 13.0488033658
Mg 3.1962910000 20.2991741618 13.0488033658
Mg 3.1962910000 16.6084152233 15.6585640389
Mg 4.7944365000 19.3764844272 15.6585640389
Mg 4.7944365000 17.5311049580 18.2683247121
Mg 3.1962910000 20.2991741618 18.2683247121
Mg 3.1962910000 16.6084152233 20.8780853852
Mg 4.7944365000 19.3764844272 20.8780853852
Mg 4.7944365000 17.5311049580 23.4878460584
Mg 3.1962910000 20.2991741618 23.4878460584
Mg 3.1962910000 16.6084152233 26.0976067315
Mg 4.7944365000 19.3764844272 26.0976067315
Mg 4.7944365000 17.5311049580 28.7073674047
Mg 3.1962910000 20.2991741618 28.7073674047
Mg 3.1962910000 16.6084152233 31.3171280778
Mg 4.7944365000 19.3764844272 31.3171280778
Mg 4.7944365000 17.5311049580 33.9268887510
Mg 3.1962910000 20.2991741618 33.9268887510
Mg 3.1962910000 16.6084152233 36.5366494241
Mg 4.7944365000 19.3764844272 36.5366494241
Mg 4.7944365000 17.5311049580 39.1464100973
Mg 3.1962910000 20.2991741618 39.1464100973
Mg 3.1962910000 22.1445536311 0.0000000000
Mg 4.7944365000 24.9126228350 0.0000000000
Mg 4.7944365000 23.0672433657 2.6097606732
Mg 3.1962910000 25.8353125696 2.6097606732
Mg 3.1962910000 22.1445536311 5.2195213463
Mg 4.7944365000 24.9126228350 5.2195213463
Mg 4.7944365000 23.0672433657 7.8292820195
Mg 3.1962910000 25.8353125696 7.8292820195
Mg 3.1962910000 22.1445536311 10.4390426926
Mg 4.7944365000 24.9126228350 10.4390426926
Mg 4.7944365000 23.0672433657 13.0488033658
Mg 3.1962910000 25.8353125696 13.0488033658
Mg 3.1962910000 22.1445536311 15.6585640389
Mg 4.7944365000 24.9126228350 15.6585640389
Mg 4.7944365000 23.0672433657 18.2683247121
Mg 3.1962910000 25.8353125696 18.2683247121
Mg 3.1962910000 22.1445536311 20.8780853852
Mg 4.7944365000 24.9126228350 20.8780853852
Mg 4.7944365000 23.0672433657 23.4878460584
Mg 3.1962910000 25.8353125696 23.4878460584
Mg 3.1962910000 22.1445536311 26.0976067315
Mg 4.7944365000 24.9126228350 26.0976067315
Mg 4.7944365000 23.0672433657 28.7073674047
Mg 3.1962910000 25.8353125696 28.7073674047
Mg 3.1962910000 22.1445536311 31.3171280778
Mg 4.7944365000 24.9126228350 31.3171280778
Mg 4.7944365000 23.0672433657 33.9268887510
Mg 3.1962910000 25.8353125696 33.9268887510
Mg 3.1962910000 22.1445536311 36.5366494241
Mg 4.7944365000 24.9126228350 36.5366494241
Mg 4.7944365000 23.0672433657 39.1464100973
Mg 3.1962910000 25.8353125696 39.1464100973
Mg 3.1962910000 27.6806920389 0.0000000000
Mg 4.7944365000 30.4487612428 0.0000000000
Mg 4.7944365000 28.6033817735 2.6097606732
Mg 3.1962910000 31.3714509774 2.6097606732
Mg 3.1962910000 27.6806920389 5.2195213463
Mg 4.7944365000 30.4487612428 5.2195213463
Mg 4.7944365000 28.6033817735 7.8292820195
Mg 3.1962910000 31.3714509774 7.8292820195
Mg 3.1962910000 27.6806920389 10.4390426926
Mg 4.7944365000 30.4487612428 10.4390426926
Mg 4.7944365000 28.6033817735 13.0488033658
Mg 3.1962910000 31.3714509774 13.0488033658
Mg 3.1962910000 27.6806920389 15.6585640389
Mg 4.7944365000 30.4487612428 15.6585640389
Mg 4.7944365000 28.6033817735 18.2683247121
Mg 3.1962910000 31.3714509774 18.2683247121
Mg 3.1962910000 27.6806920389 20.8780853852
Mg 4.7944365000 30.4487612428 20.8780853852
Mg 4.7944365000 28.6033817735 23.4878460584
Mg 3.1962910000 31.3714509774 23.4878460584
Mg 3.1962910000 27.6806920389 26.0976067315
Mg 4.7944365000 30.4487612428 26.0976067315
Mg 4.7944365000 28.6033817735 28.7073674047
Mg 3.1962910000 31.3714509774 28.7073674047
Mg 3.1962910000 27.6806920389 31.3171280778
Mg 4.7944365000 30.4487612428 31.3171280778
Mg 4.7944365000 28.6033817735 33.9268887510
Mg 3.1962910000 31.3714509774 33.9268887510
Mg 3.1962910000 27.6806920389 36.5366494241
Mg 4.7944365000 30.4487612428 36.5366494241
Mg 4.7944365000 28.6033817735 39.1464100973
Mg 3.1962910000 31.3714509774 39.1464100973
Mg 3.1962910000 33.2168304467 0.0000000000
Mg 4.7944365000 35.9848996505 0.0000000000
Mg 4.7944365000 34.1395201813 2.6097606732
Mg 3.1962910000 36.9075893852 2.6097606732
Mg 3.1962910000 33.2168304467 5.2195213463
Mg 4.7944365000 35.9848996505 5.2195213463
Mg 4.7944365000 34.1395201813 7.8292820195
Mg 3.1962910000 36.9075893852 7.8292820195
Mg 3.1962910000 33.2168304467 10.4390426926
Mg 4.7944365000 35.9848996505 10.4390426926
Mg 4.7944365000 34.1395201813 13.0488033658
Mg 3.1962910000 36.9075893852 13.0488033658
Mg 3.1962910000 33.2168304467 15.6585640389
Mg 4.7944365000 35.9848996505 15.6585640389
Mg 4.7944365000 34.1395201813 18.2683247121
Mg 3.1962910000 36.9075893852 18.2683247121
Mg 3.1962910000 33.2168304467 20.8780853852
Mg 4.7944365000 35.9848996505 20.8780853852
Mg 4.7944365000 34.1395201813 23.4878460584
Mg 3.1962910000 36.9075893852 23.4878460584
Mg 3.1962910000 33.2168304467 26.0976067315
Mg 4.7944365000 35.9848996505 26.0976067315
Mg 4.7944365000 34.1395201813 28.7073674047
Mg 3.1962910000 36.9075893852 28.7073674047
Mg 3.1962910000 33.2168304467 31.3171280778
Mg 4.7944365000 35.9848996505 31.3171280778
Mg 4.7944365000 34.1395201813 33.9268887510
Mg 3.1962910000 36.9075893852 33.9268887510
Mg 3.1962910000 33.2168304467 36.5366494241
Mg 4.7944365000 35.9848996505 36.5366494241
Mg 4.7944365000 34.1395201813 39.1464100973
Mg 3.1962910000 36.9075893852 39.1464100973
Mg 3.1962910000 38.7529688544 0.0000000000
Mg 4.7944365000 41.5210380583 0.0000000000
Mg 4.7944365000 39.6756585891 2.6097606732
Mg 3.1962910000 42.4437277929 2.6097606732
Mg 3.1962910000 38.7529688544 5.2195213463
Mg 4.7944365000 41.5210380583 5.2195213463
Mg 4.7944365000 39.6756585891 7.8292820195
Mg 3.1962910000 42.4437277929 7.8292820195
Mg 3.1962910000 38.7529688544 10.4390426926
Mg 4.7944365000 41.5210380583 10.4390426926
Mg 4.7944365000 39.6756585891 13.0488033658
Mg 3.1962910000 42.4437277929 13.0488033658
Mg 3.1962910000 38.7529688544 15.6585640389
Mg 4.7944365000 41.5210380583 15.6585640389
Mg 4.7944365000 39.6756585891 18.2683247121
Mg 3.1962910000 42.4437277929 18.2683247121
Mg 3.1962910000 38.7529688544 20.8780853852
Mg 4.7944365000 41.5210380583 20.8780853852
Mg 4.7944365000 39.6756585891 23.4878460584
Mg 3.1962910000 42.4437277929 23.4878460584
Mg 3.1962910000 38.7529688544 26.0976067315
Mg 4.7944365000 41.5210380583 26.0976067315
Mg 4.7944365000 39.6756585891 28.7073674047
Mg 3.1962910000 42.4437277929 28.7073674047
Mg 3.1962910000 38.7529688544 31.3171280778
Mg 4.7944365000 41.5210380583 31.3171280778
Mg 4.7944365000 39.6756585891 33.9268887510
Mg 3.1962910000 42.4437277929 33.9268887510
Mg 3.1962910000 38.7529688544 36.5366494241
Mg 4.7944365000 41.5210380583 36.5366494241
Mg 4.7944365000 39.6756585891 39.1464100973
Mg 3.1962910000 42.4437277929 39.1464100973
Mg 6.3925820000 0.0000000000 0.0000000000
Mg 7.9907275000 2.7680692039 0.0000000000
Mg 7.9907275000 0.9226897346 2.6097606732
Mg 6.3925820000 3.6907589385 2.6097606732
Mg 6.3925820000 0.0000000000 5.2195213463
Mg 7.9907275000 2.7680692039 5.2195213463
Mg 7.9907275000 0.9226897346 7.8292820195
Mg 6.3925820000 3.6907589385 7.8292820195
Mg 6.3925820000 0.0000000000 10.4390426926
Mg 7.9907275000 2.7680692039 10.4390426926
Mg 7.9907275000 0.9226897346 13.0488033658
Mg 6.3925820000 3.6907589385 13.0488033658
Mg 6.3925820000 0.0000000000 15.6585640389
Mg 7.9907275000 2.7680692039 15.6585640389
Mg 7.9907275000 0.9226897346 18.2683247121
Mg 6.3925820000 3.6907589385 18.2683247121
Mg 6.3925820000 0.0000000000 20.8780853852
Mg 7.9907275000 2.7680692039 20.8780853852
Mg 7.9907275000 0.9226897346 23.4878460584
Mg 6.3925820000 3.6907589385 23.4878460584
Mg 6.3925820000 0.0000000000 26.0976067315
Mg 7.9907275000 2.7680692039 26.0976067315
Mg 7.9907275000 0.9226897346 28.7073674047
Mg 6.3925820000 3.6907589385 28.7073674047
Mg 6.3925820000 0.0000000000 31.3171280778
Mg 7.9907275000 2.7680692039 31.3171280778
Mg 7.9907275000 0.9226897346 33.9268887510
Mg 6.3925820000 3.6907589385 33.9268887510
Mg 6.3925820000 0.0000000000 36.5366494241
Mg 7.9907275000 2.7680692039 36.5366494241
Mg 7.9907275000 0.9226897346 39.1464100973
Mg 6.3925820000 3.6907589385 39.1464100973
Mg 6.3925820000 5.5361384078 0.0000000000
Mg 7.9907275000 8.3042076117 0.0000000000
Mg 7.9907275000 6.4588281424 2.6097606732
Mg 6.3925820000 9.2268973463 2.6097606732
Mg 6.3925820000 5.5361384078 5.2195213463
Mg 7.9907275000 8.3042076117 5.2195213463
Mg 7.9907275000 6.4588281424 7.8292820195
Mg 6.3925820000 9.2268973463 7.8292820195
Mg 6.3925820000 5.5361384078 10.4390426926
Mg 7.9907275000 8.3042076117 10.4390426926
Mg 7.9907275000 6.4588281424 13.0488033658
Mg 6.3925820000 9.2268973463 13.0488033658
Mg 6.3925820000 5.5361384078 15.6585640389
Mg 7.9907275000 8.3042076117 15.6585640389
Mg 7.9907275000 6.4588281424 18.2683247121
Mg 6.3925820000 9.2268973463 18.2683247121
Mg 6.3925820000 5.5361384078 20.8780853852
Mg 7.9907275000 8.3042076117 20.8780853852
Mg 7.9907275000 6.4588281424 23.4878460584
Mg 6.3925820000 9.2268973463 23.4878460584
Mg 6.3925820000 5.5361384078 26.0976067315
Mg 7.9907275000 8.3042076117 26.0976067315
Mg 7.9907275000 6.4588281424 28.7073674047
Mg 6.3925820000 9.2268973463 28.7073674047
Mg 6.3925820000 5.5361384078 31.3171280778
Mg 7.9907275000 8.3042076117 31.3171280778
Mg 7.9907275000 6.4588281424 33.9268887510
Mg 6.3925820000 9.2268973463 33.9268887510
Mg 6.3925820000 5.5361384078 36.5366494241
Mg 7.9907275000 8.3042076117 36.5366494241
Mg 7.9907275000 6.4588281424 39.1464100973
Mg 6.3925820000 9.2268973463 39.1464100973
Mg 6.3925820000 11.0722768156 0.0000000000
Mg 7.9907275000 13.8403460194 0.0000000000
Mg 7.9907275000 11.9949665502 2.6097606732
Mg 6.3925820000 14.7630357541 2.6097606732
Mg 6.3925820000 11.0722768156 5.2195213463
Mg 7.9907275000 13.8403460194 5.2195213463
Mg 7.9907275000 11.9949665502 7.8292820195
Mg 6.3925820000 14.7630357541 7.8292820195
Mg 6.3925820000 11.0722768156 10.4390426926
Mg 7.9907275000 13.8403460194 10.4390426926
Mg 7.9907275000 11.9949665502 13.0488033658
Mg 6.3925820000 14.7630357541 13.0488033658
Mg 6.3925820000 11.0722768156 15.6585640389
Mg 7.9907275000 13.8403460194 15.6585640389
Mg 7.9907275000 11.9949665502 18.2683247121
Mg 6.3925820000 14.7630357541 18.2683247121
Mg 6.3925820000 11.0722768156 20.8780853852
Mg 7.9907275000 13.8403460194 20.8780853852
Mg 7.9907275000 11.9949665502 23.4878460584
Mg 6.3925820000 14.7630357541 23.4878460584
Mg 6.3925820000 11.0722768156 26.0976067315
Mg 7.9907275000 13.8403460194 26.0976067315
Mg 7.9907275000 11.9949665502 28.7073674047
Mg 6.3925820000 14.7630357541 28.7073674047
Mg 6.3925820000 11.0722768156 31.3171280778
Mg 7.9907275000 13.8403460194 31.3171280778
Mg 7.9907275000 11.9949665502 33.9268887510
Mg 6.3925820000 14.7630357541 33.9268887510
Mg 6.3925820000 11.0722768156 36.5366494241
Mg 7.9907275000 13.8403460194 36.5366494241
Mg 7.9907275000 11.9949665502 39.1464100973
Mg 6.3925820000 14.7630357541 39.1464100973
Mg 6.3925820000 16.6084152233 0.0000000000
Mg 7.9907275000 19.3764844272 0.0000000000
Mg 7.9907275000 17.5311049580 2.6097606732
Mg 6.3925820000 20.2991741618 2.6097606732
Mg 6.3925820000 16.6084152233 5.2195213463
Mg 7.9907275000 19.3764844272 5.2195213463
Mg 7.9907275000 17.5311049580 7.8292820195
Mg 6.3925820000 20.2991741618 7.8292820195
Mg 6.3925820000 16.6084152233 10.4390426926
Mg 7.9907275000 19.3764844272 10.4390426926
Mg 7.9907275000 17.5311049580 13.0488033658
Mg 6.3925820000 20.2991741618 13.0488033658
Mg 6.3925820000 16.6084152233 15.6585640389
Mg 7.9907275000 19.3764844272 15.6585640389
Mg 7.9907275000 17.5311049580 18.2683247121
Mg 6.3925820000 20.2991741618 18.2683247121
Mg 6.3925820000 16.6084152233 20.8780853852
Mg 7.9907275000 19.3764844272 20.8780853852
Mg 7.9907275000 17.5311049580 23.4878460584
Mg 6.3925820000 20.2991741618 23.4878460584
Mg 6.3925820000 16.6084152233 26.0976067315
Mg 7.9907275000 19.3764844272 26.0976067315
Mg 7.9907275000 17.5311049580 28.7073674047
Mg 6.3925820000 20.2991741618 28.7073674047
Mg 6.3925820000 16.6084152233 31.3171280778
Mg 7.9907275000 19.3764844272 31.3171280778
Mg 7.9907275000 17.5311049580 33.9268887510
Mg 6.3925820000 20.2991741618 33.9268887510
Mg 6.3925820000 16.6084152233 36.5366494241
Mg 7.9907275000 19.3764844272 36.5366494241
Mg 7.9907275000 17.5311049580 39.1464100973
Mg 6.3925820000 20.2991741618 39.1464100973
Mg 6.3925820000 22.1445536311 0.0000000000
Mg 7.9907275000 24.9126228350 0.0000000000
Mg 7.9907275000 23.0672433657 2.6097606732
Mg 6.3925820000 25.8353125696 2.6097606732
Mg 6.3925820000 22.1445536311 5.2195213463
Mg 7.9907275000 24.9126228350 5.2195213463
Mg 7.9907275000 23.0672433657 7.8292820195
Mg 6.3925820000 25.8353125696 7.8292820195
Mg 6.3925820000 22.1445536311 10.4390426926
Mg 7.9907275000 24.9126228350 10.4390426926
Mg 7.9907275000 23.0672433657 13.0488033658
Mg 6.3925820000 25.8353125696 13.0488033658
Mg 6.3925820000 22.1445536311 15.6585640389
Mg 7.9907275000 24.9126228350 15.6585640389
Mg 7.9907275000 23.0672433657 18.2683247121
Mg 6.3925820000 25.8353125696 18.2683247121
Mg 6.3925820000 22.1445536311 20.8780853852
Mg 7.9907275000 24.9126228350 20.8780853852
Mg 7.9907275000 23.0672433657 23.4878460584
Mg 6.3925820000 25.8353125696 23.4878460584
Mg 6.3925820000 22.1445536311 26.0976067315
Mg 7.9907275000 24.9126228350 26.0976067315
Mg 7.9907275000 23.0672433657 28.7073674047
Mg 6.3925820000 25.8353125696 28.7073674047
Mg 6.3925820000 22.1445536311 31.3171280778
Mg 7.9907275000 24.9126228350 31.3171280778
Mg 7.9907275000 23.0672433657 33.9268887510
Mg 6.3925820000 25.8353125696 33.9268887510
Mg 6.3925820000 22.1445536311 36.5366494241
Mg 7.9907275000 24.9126228350 36.5366494241
Mg 7.9907275000 23.0672433657 39.1464100973
Mg 6.3925820000 25.8353125696 39.1464100973
Mg 6.3925820000 27.6806920389 0.0000000000
Mg 7.9907275000 30.4487612428 0.0000000000
Mg 7.9907275000 28.6033817735 2.6097606732
Mg 6.3925820000 31.3714509774 2.6097606732
Mg 6.3925820000 27.6806920389 5.2195213463
Mg 7.9907275000 30.4487612428 5.2195213463
Mg 7.9907275000 28.6033817735 7.8292820195
Mg 6.3925820000 31.3714509774 7.8292820195
Mg 6.3925820000 27.6806920389 10.4390426926
Mg 7.9907275000 30.4487612428 10.4390426926
Mg 7.9907275000 28.6033817735 13.0488033658
Mg 6.3925820000 31.3714509774 13.0488033658
Mg 6.3925820000 27.6806920389 15.6585640389
Mg 7.9907275000 30.4487612428 15.6585640389
Mg 7.9907275000 28.6033817735 18.2683247121
Mg 6.3925820000 31.3714509774 18.2683247121
Mg 6.3925820000 27.6806920389 20.8780853852
Mg 7.9907275000 30.4487612428 20.8780853852
Mg 7.9907275000 28.6033817735 23.4878460584
Mg 6.3925820000 31.3714509774 23.4878460584
Mg 6.3925820000 27.6806920389 26.0976067315
Mg 7.9907275000 30.4487612428 26.0976067315
Mg 7.9907275000 28.6033817735 28.7073674047
Mg 6.3925820000 31.3714509774 28.7073674047
Mg 6.3925820000 27.6806920389 31.3171280778
Mg 7.9907275000 30.4487612428 31.3171280778
Mg 7.9907275000 28.6033817735 33.9268887510
Mg 6.3925820000 31.3714509774 33.9268887510
Mg 6.3925820000 27.6806920389 36.5366494241
Mg 7.9907275000 30.4487612428 36.5366494241
Mg 7.9907275000 28.6033817735 39.1464100973
Mg 6.3925820000 31.3714509774 39.1464100973
Mg 6.3925820000 33.2168304467 0.0000000000
Mg 7.9907275000 35.9848996505 0.0000000000
Mg 7.9907275000 34.1395201813 2.6097606732
Mg 6.3925820000 36.9075893852 2.6097606732
Mg 6.3925820000 33.2168304467 5.2195213463
Mg 7.9907275000 35.9848996505 5.2195213463
Mg 7.9907275000 34.1395201813 7.8292820195
Mg 6.3925820000 36.9075893852 7.8292820195
Mg 6.3925820000 33.2168304467 10.4390426926
Mg 7.9907275000 35.9848996505 10.4390426926
Mg 7.9907275000 34.1395201813 13.0488033658
Mg 6.3925820000 36.9075893852 13.0488033658
Mg 6.3925820000 33.2168304467 15.6585640389
Mg 7.9907275000 35.9848996505 15.6585640389
Mg 7.9907275000 34.1395201813 18.2683247121
Mg 6.3925820000 36.9075893852 18.2683247121
Mg 6.3925820000 33.2168304467 20.8780853852
Mg 7.9907275000 35.9848996505 20.8780853852
Mg 7.9907275000 34.1395201813 23.4878460584
Mg 6.3925820000 36.9075893852 23.4878460584
Mg 6.3925820000 33.2168304467 26.0976067315
Mg 7.9907275000 35.9848996505 26.0976067315
Mg 7.9907275000 34.1395201813 28.7073674047
Mg 6.3925820000 36.9075893852 28.7073674047
Mg 6.3925820000 33.2168304467 31.3171280778
Mg 7.9907275000 35.9848996505 31.3171280778
Mg 7.9907275000 34.1395201813 33.9268887510
Mg 6.3925820000 36.9075893852 33.9268887510
Mg 6.3925820000 33.2168304467 36.5366494241
Mg 7.9907275000 35.9848996505 36.5366494241
Mg 7.9907275000 34.1395201813 39.1464100973
Mg 6.3925820000 36.9075893852 39.1464100973
Mg 6.3925820000 38.7529688544 0.0000000000
Mg 7.9907275000 41.5210380583 0.0000000000
Mg 7.9907275000 39.6756585891 2.6097606732
Mg 6.3925820000 42.4437277929 2.6097606732
Mg 6.3925820000 38.7529688544 5.2195213463
Mg 7.9907275000 41.5210380583 5.2195213463
Mg 7.9907275000 39.6756585891 7.8292820195
Mg 6.3925820000 42.4437277929 7.8292820195
Mg 6.3925820000 38.7529688544 10.4390426926
Mg 7.9907275000 41.5210380583 10.4390426926
Mg 7.9907275000 39.6756585891 13.0488033658
Mg 6.3925820000 42.4437277929 13.0488033658
Mg 6.3925820000 38.7529688544 15.6585640389
Mg 7.9907275000 41.5210380583 15.6585640389
Mg 7.9907275000 39.6756585891 18.2683247121
Mg 6.3925820000 42.4437277929 18.2683247121
Mg 6.3925820000 38.7529688544 20.8780853852
Mg 7.9907275000 41.5210380583 20.8780853852
Mg 7.9907275000 39.6756585891 23.4878460584
Mg 6.3925820000 42.4437277929 23.4878460584
Mg 6.3925820000 38.7529688544 26.0976067315
Mg 7.9907275000 41.5210380583 26.0976067315
Mg 7.9907275000 39.6756585891 28.7073674047
Mg 6.3925820000 42.4437277929 28.7073674047
Mg 6.3925820000 38.7529688544 31.3171280778
Mg 7.9907275000 41.5210380583 31.3171280778
Mg 7.9907275000 39.6756585891 33.9268887510
Mg 6.3925820000 42.4437277929 33.9268887510
Mg 6.3925820000 38.7529688544 36.5366494241
Mg 7.9907275000 41.5210380583 36.5366494241
Mg 7.9907275000 39.6756585891 39.1464100973
Mg 6.3925820000 42.4437277929 39.1464100973
Mg 9.5888730000 0.0000000000 0.0000000000
Mg 11.1870185000 2.7680692039 0.0000000000
Mg 11.1870185000 0.9226897346 2.6097606732
Mg 9.5888730000 3.6907589385 2.6097606732
Mg 9.5888730000 0.0000000000 5.2195213463
Mg 11.1870185000 2.7680692039 5.2195213463
Mg 11.1870185000 0.9226897346 7.8292820195
Mg 9.5888730000 3.6907589385 7.8292820195
Mg 9.5888730000 0.0000000000 10.4390426926
Mg 11.1870185000 2.7680692039 10.4390426926
Mg 11.1870185000 0.9226897346 13.0488033658
Mg 9.5888730000 3.6907589385 13.0488033658
Mg 9.5888730000 0.0000000000 15.6585640389
Mg 11.1870185000 2.7680692039 15.6585640389
Mg 11.1870185000 0.9226897346 18.2683247121
Mg 9.5888730000 3.6907589385 18.2683247121
Mg 9.5888730000 0.0000000000 20.8780853852
Mg 11.1870185000 2.7680692039 20.8780853852
Mg 11.1870185000 0.9226897346 23.4878460584
Mg 9.5888730000 3.6907589385 23.4878460584
Mg 9.5888730000 0.0000000000 26.0976067315
Mg 11.1870185000 2.7680692039 26.0976067315
Mg 11.1870185000 0.9226897346 28.7073674047
Mg 9.5888730000 3.6907589385 28.7073674047
Mg 9.5888730000 0.0000000000 31.3171280778
Mg 11.1870185000 2.7680692039 31.3171280778
Mg 11.1870185000 0.9226897346 33.9268887510
Mg 9.5888730000 3.6907589385 33.9268887510
Mg 9.5888730000 0.0000000000 36.5366494241
Mg 11.1870185000 2.7680692039 36.5366494241
Mg 11.1870185000 0.9226897346 39.1464100973
Mg 9.5888730000 3.6907589385 39.1464100973
Mg 9.5888730000 5.5361384078 0.0000000000
Mg 11.1870185000 8.3042076117 0.0000000000
Mg 11.1870185000 6.4588281424 2.6097606732
Mg 9.5888730000 9.2268973463 2.6097606732
Mg 9.5888730000 5.5361384078 5.2195213463
Mg 11.1870185000 8.3042076117 5.2195213463
Mg 11.1870185000 6.4588281424 7.8292820195
Mg 9.5888730000 9.2268973463 7.8292820195
Mg 9.5888730000 5.5361384078 10.4390426926
Mg 11.1870185000 8.3042076117 10.4390426926
Mg 11.1870185000 6.4588281424 13.0488033658
Mg 9.5888730000 9.2268973463 13.0488033658
Mg 9.5888730000 5.5361384078 15.6585640389
Mg 11.1870185000 8.3042076117 15.6585640389
Mg 11.1870185000 6.4588281424 18.2683247121
Mg 9.5888730000 9.2268973463 18.2683247121
Mg 9.5888730000 5.5361384078 20.8780853852
Mg 11.1870185000 8.3042076117 20.8780853852
Mg 11.1870185000 6.4588281424 23.4878460584
Mg 9.5888730000 9.2268973463 23.4878460584
Mg 9.5888730000 5.5361384078 26.0976067315
Mg 11.1870185000 8.3042076117 26.0976067315
Mg 11.1870185000 6.4588281424 28.7073674047
Mg 9.5888730000 9.2268973463 28.7073674047
Mg 9.5888730000 5.5361384078 31.3171280778
Mg 11.1870185000 8.3042076117 31.3171280778
Mg 11.1870185000 6.4588281424 33.9268887510
Mg 9.5888730000 9.2268973463 33.9268887510
Mg 9.5888730000 5.5361384078 36.5366494241
Mg 11.1870185000 8.3042076117 36.5366494241
Mg 11.1870185000 6.4588281424 39.1464100973
Mg 9.5888730000 9.2268973463 39.1464100973
Mg 9.5888730000 11.0722768156 0.0000000000
Mg 11.1870185000 13.8403460194 0.0000000000
Mg 11.1870185000 11.9949665502 2.6097606732
Mg 9.5888730000 14.7630357541 2.6097606732
Mg 9.5888730000 11.0722768156 5.2195213463
Mg 11.1870185000 13.8403460194 5.2195213463
Mg 11.1870185000 11.9949665502 7.8292820195
Mg 9.5888730000 14.7630357541 7.8292820195
Mg 9.5888730000 11.0722768156 10.4390426926
Mg 11.1870185000 13.8403460194 10.4390426926
Mg 11.1870185000 11.9949665502 13.0488033658
Mg 9.5888730000 14.7630357541 13.0488033658
Mg 9.5888730000 11.0722768156 15.6585640389
Mg 11.1870185000 13.8403460194 15.6585640389
Mg 11.1870185000 11.9949665502 18.2683247121
Mg 9.5888730000 14.7630357541 18.2683247121
Mg 9.5888730000 11.0722768156 20.8780853852
Mg 11.1870185000 13.8403460194 20.8780853852
Mg 11.1870185000 11.9949665502 23.4878460584
Mg 9.5888730000 14.7630357541 23.4878460584
Mg 9.5888730000 11.0722768156 26.0976067315
Mg 11.1870185000 13.8403460194 26.0976067315
Mg 11.1870185000 11.9949665502 28.7073674047
Mg 9.5888730000 14.7630357541 28.7073674047
Mg 9.5888730000 11.0722768156 31.3171280778
Mg 11.1870185000 13.8403460194 31.3171280778
Mg 11.1870185000 11.9949665502 33.9268887510
Mg 9.5888730000 14.7630357541 33.9268887510
Mg 9.5888730000 11.0722768156 36.5366494241
Mg 11.1870185000 13.8403460194 36.5366494241
Mg 11.1870185000 11.9949665502 39.1464100973
Mg 9.5888730000 14.7630357541 39.1464100973
Mg 9.5888730000 16.6084152233 0.0000000000
Mg 11.1870185000 19.3764844272 0.0000000000
Mg 11.1870185000 17.5311049580 2.6097606732
Mg 9.5888730000 20.2991741618 2.6097606732
Mg 9.5888730000 16.6084152233 5.2195213463
Mg 11.1870185000 19.3764844272 5.2195213463
Mg 11.1870185000 17.5311049580 7.8292820195
Mg 9.5888730000 20.2991741618 7.8292820195
Mg 9.5888730000 16.6084152233 10.4390426926
Mg 11.1870185000 19.3764844272 10.4390426926
Mg 11.1870185000 17.5311049580 13.0488033658
Mg 9.5888730000 20.2991741618 13.0488033658
Mg 9.5888730000 16.6084152233 15.6585640389
Mg 11.1870185000 19.3764844272 15.6585640389
Mg 11.1870185000 17.5311049580 18.2683247121
Mg 9.5888730000 20.2991741618 18.2683247121
Mg 9.5888730000 16.6084152233 20.8780853852
Mg 11.1870185000 19.3764844272 20.8780853852
Mg 11.1870185000 17.5311049580 23.4878460584
Mg 9.5888730000 20.2991741618 23.4878460584
Mg 9.5888730000 16.6084152233 26.0976067315
Mg 11.1870185000 19.3764844272 26.0976067315
Mg 11.1870185000 17.5311049580 28.7073674047
Mg 9.5888730000 20.2991741618 28.7073674047
Mg 9.5888730000 16.6084152233 31.3171280778
Mg 11.1870185000 19.3764844272 31.3171280778
Mg 11.1870185000 17.5311049580 33.9268887510
Mg 9.5888730000 20.2991741618 33.9268887510
Mg 9.5888730000 16.6084152233 36.5366494241
Mg 11.1870185000 19.3764844272 36.5366494241
Mg 11.1870185000 17.5311049580 39.1464100973
Mg 9.5888730000 20.2991741618 39.1464100973
Mg 9.5888730000 22.1445536311 0.0000000000
Mg 11.1870185000 24.9126228350 0.0000000000
Mg 11.1870185000 23.0672433657 2.6097606732
Mg 9.5888730000 25.8353125696 2.6097606732
Mg 9.5888730000 22.1445536311 5.2195213463
Mg 11.1870185000 24.9126228350 5.2195213463
Mg 11.1870185000 23.0672433657 7.8292820195
Mg 9.5888730000 25.8353125696 7.8292820195
Mg 9.5888730000 22.1445536311 10.4390426926
Mg 11.1870185000 24.9126228350 10.4390426926
Mg 11.1870185000 23.0672433657 13.0488033658
Mg 9.5888730000 25.8353125696 13.0488033658
Mg 9.5888730000 22.1445536311 15.6585640389
Mg 11.1870185000 24.9126228350 15.6585640389
Mg 11.1870185000 23.0672433657 18.2683247121
Mg 9.5888730000 25.8353125696 18.2683247121
Mg 9.5888730000 22.1445536311 20.8780853852
Mg 11.1870185000 24.9126228350 20.8780853852
Mg 11.1870185000 23.0672433657 23.4878460584
Mg 9.5888730000 25.8353125696 23.4878460584
Mg 9.5888730000 22.1445536311 26.0976067315
Mg 11.1870185000 24.9126228350 26.0976067315
Mg 11.1870185000 23.0672433657 28.7073674047
Mg 9.5888730000 25.8353125696 28.7073674047
Mg 9.5888730000 22.1445536311 31.3171280778
Mg 11.1870185000 24.9126228350 31.3171280778
Mg 11.1870185000 23.0672433657 33.9268887510
Mg 9.5888730000 25.8353125696 33.9268887510
Mg 9.5888730000 22.1445536311 36.5366494241
Mg 11.1870185000 24.9126228350 36.5366494241
Mg 11.1870185000 23.0672433657 39.1464100973
Mg 9.5888730000 25.8353125696 39.1464100973
Mg 9.5888730000 27.6806920389 0.0000000000
Mg 11.1870185000 30.4487612428 0.0000000000
Mg 11.1870185000 28.6033817735 2.6097606732
Mg 9.5888730000 31.3714509774 2.6097606732
Mg 9.5888730000 27.6806920389 5.2195213463
Mg 11.1870185000 30.4487612428 5.2195213463
Mg 11.1870185000 28.6033817735 7.8292820195
Mg 9.5888730000 31.3714509774 7.8292820195
Mg 9.5888730000 27.6806920389 10.4390426926
Mg 11.1870185000 30.4487612428 10.4390426926
Mg 11.1870185000 28.6033817735 13.0488033658
Mg 9.5888730000 31.3714509774 13.0488033658
Mg 9.5888730000 27.6806920389 15.6585640389
Mg 11.1870185000 30.4487612428 15.6585640389
Mg 11.1870185000 28.6033817735 18.2683247121
Mg 9.5888730000 31.3714509774 18.2683247121
Mg 9.5888730000 27.6806920389 20.8780853852
Mg 11.1870185000 30.4487612428 20.8780853852
Mg 11.1870185000 28.6033817735 23.4878460584
Mg 9.5888730000 31.3714509774 23.4878460584
Mg 9.5888730000 27.6806920389 26.0976067315
Mg 11.1870185000 30.4487612428 26.0976067315
Mg 11.1870185000 28.6033817735 28.7073674047
Mg 9.5888730000 31.3714509774 28.7073674047
Mg 9.5888730000 27.6806920389 31.3171280778
Mg 11.1870185000 30.4487612428 31.3171280778
Mg 11.1870185000 28.6033817735 33.9268887510
Mg 9.5888730000 31.3714509774 33.9268887510
Mg 9.5888730000 27.6806920389 36.5366494241
Mg 11.1870185000 30.4487612428 36.5366494241
Mg 11.1870185000 28.6033817735 39.1464100973
Mg 9.5888730000 31.3714509774 39.1464100973
Mg 9.5888730000 33.2168304467 0.0000000000
Mg 11.1870185000 35.9848996505 0.0000000000
Mg 11.1870185000 34.1395201813 2.6097606732
Mg 9.5888730000 36.9075893852 2.6097606732
Mg 9.5888730000 33.2168304467 5.2195213463
Mg 11.1870185000 35.9848996505 5.2195213463
Mg 11.1870185000 34.1395201813 7.8292820195
Mg 9.5888730000 36.9075893852 7.8292820195
Mg 9.5888730000 33.2168304467 10.4390426926
Mg 11.1870185000 35.9848996505 10.4390426926
Mg 11.1870185000 34.1395201813 13.0488033658
Mg 9.5888730000 36.9075893852 13.0488033658
Mg 9.5888730000 33.2168304467 15.6585640389
Mg 11.1870185000 35.9848996505 15.6585640389
Mg 11.1870185000 34.1395201813 18.2683247121
Mg 9.5888730000 36.9075893852 18.2683247121
Mg 9.5888730000 33.2168304467 20.8780853852
Mg 11.1870185000 35.9848996505 20.8780853852
Mg 11.1870185000 34.1395201813 23.4878460584
Mg 9.5888730000 36.9075893852 23.4878460584
Mg 9.5888730000 33.2168304467 26.0976067315
Mg 11.1870185000 35.9848996505 26.0976067315
Mg 11.1870185000 34.1395201813 28.7073674047
Mg 9.5888730000 36.9075893852 28.7073674047
Mg 9.5888730000 33.2168304467 31.3171280778
Mg 11.1870185000 35.9848996505 31.3171280778
Mg 11.1870185000 34.1395201813 33.9268887510
Mg 9.5888730000 36.9075893852 33.9268887510
Mg 9.5888730000 33.2168304467 36.5366494241
Mg 11.1870185000 35.9848996505 36.5366494241
Mg 11.1870185000 34.1395201813 39.1464100973
Mg 9.5888730000 36.9075893852 39.1464100973
Mg 9.5888730000 38.7529688544 0.0000000000
Mg 11.1870185000 41.5210380583 0.0000000000
Mg 11.1870185000 39.6756585891 2.6097606732
Mg 9.5888730000 42.4437277929 2.6097606732
Mg 9.5888730000 38.7529688544 5.2195213463
Mg 11.1870185000 41.5210380583 5.2195213463
Mg 11.1870185000 39.6756585891 7.8292820195
Mg 9.5888730000 42.4437277929 7.8292820195
Mg 9.5888730000 38.7529688544 10.4390426926
Mg 11.1870185000 41.5210380583 10.4390426926
Mg 11.1870185000 39.6756585891 13.0488033658
Mg 9.5888730000 42.4437277929 13.0488033658
Mg 9.5888730000 38.7529688544 15.6585640389
Mg 11.1870185000 41.5210380583 15.6585640389
Mg 11.1870185000 39.6756585891 18.2683247121
Mg 9.5888730000 42.4437277929 18.2683247121
Mg 9.5888730000 38.7529688544 20.8780853852
Mg 11.1870185000 41.5210380583 20.8780853852
Mg 11.1870185000 39.6756585891 23.4878460584
Mg 9.5888730000 42.4437277929 23.4878460584
Mg 9.5888730000 38.7529688544 26.0976067315
Mg 11.1870185000 41.5210380583 26.0976067315
Mg 11.1870185000 39.6756585891 28.7073674047
Mg 9.5888730000 42.4437277929 28.7073674047
Mg 9.5888730000 38.7529688544 31.3171280778
Mg 11.1870185000 41.5210380583 31.3171280778
Mg 11.1870185000 39.6756585891 33.9268887510
Mg 9.5888730000 42.4437277929 33.9268887510
Mg 9.5888730000 38.7529688544 36.5366494241
Mg 11.1870185000 41.5210380583 36.5366494241
Mg 11.1870185000 39.6756585891 39.1464100973
Mg 9.5888730000 42.4437277929 39.1464100973
Mg 12.7851640000 0.0000000000 0.0000000000
Mg 14.3833095000 2.7680692039 0.0000000000
Mg 14.3833095000 0.9226897346 2.6097606732
Mg 12.7851640000 3.6907589385 2.6097606732
Mg 12.7851640000 0.0000000000 5.2195213463
Mg 14.3833095000 2.7680692039 5.2195213463
Mg 14.3833095000 0.9226897346 7.8292820195
Mg 12.7851640000 3.6907589385 7.8292820195
Mg 12.7851640000 0.0000000000 10.4390426926
Mg 14.3833095000 2.7680692039 10.4390426926
Mg 14.3833095000 0.9226897346 13.0488033658
Mg 12.7851640000 3.6907589385 13.0488033658
Mg 12.7851640000 0.0000000000 15.6585640389
Mg 14.3833095000 2.7680692039 15.6585640389
Mg 14.3833095000 0.9226897346 18.2683247121
Mg 12.7851640000 3.6907589385 18.2683247121
Mg 12.7851640000 0.0000000000 20.8780853852
Mg 14.3833095000 2.7680692039 20.8780853852
Mg 14.3833095000 0.9226897346 23.4878460584
Mg 12.7851640000 3.6907589385 23.4878460584
Mg 12.7851640000 0.0000000000 26.0976067315
Mg 14.3833095000 2.7680692039 26.0976067315
Mg 14.3833095000 0.9226897346 28.7073674047
Mg 12.7851640000 3.6907589385 28.7073674047
Mg 12.7851640000 0.0000000000 31.3171280778
Mg 14.3833095000 2.7680692039 31.3171280778
Mg 14.3833095000 0.9226897346 33.9268887510
Mg 12.7851640000 3.6907589385 33.9268887510
Mg 12.7851640000 0.0000000000 36.5366494241
Mg 14.3833095000 2.7680692039 36.5366494241
Mg 14.3833095000 0.9226897346 39.1464100973
Mg 12.7851640000 3.6907589385 39.1464100973
Mg 12.7851640000 5.5361384078 0.0000000000
Mg 14.3833095000 8.3042076117 0.0000000000
Mg 14.3833095000 6.4588281424 2.6097606732
Mg 12.7851640000 9.2268973463 2.6097606732
Mg 12.7851640000 5.5361384078 5.2195213463
Mg 14.3833095000 8.3042076117 5.2195213463
Mg 14.3833095000 6.4588281424 7.8292820195
Mg 12.7851640000 9.2268973463 7.8292820195
Mg 12.7851640000 5.5361384078 10.4390426926
Mg 14.3833095000 8.3042076117 10.4390426926
Mg 14.3833095000 6.4588281424 13.0488033658
Mg 12.7851640000 9.2268973463 13.0488033658
Mg 12.7851640000 5.5361384078 15.6585640389
Mg 14.3833095000 8.3042076117 15.6585640389
Mg 14.3833095000 6.4588281424 18.2683247121
Mg 12.7851640000 9.2268973463 18.2683247121
Mg 12.7851640000 5.5361384078 20.8780853852
Mg 14.3833095000 8.3042076117 20.8780853852
Mg 14.3833095000 6.4588281424 23.4878460584
Mg 12.7851640000 9.2268973463 23.4878460584
Mg 12.7851640000 5.5361384078 26.0976067315
Mg 14.3833095000 8.3042076117 26.0976067315
Mg 14.3833095000 6.4588281424 28.7073674047
Mg 12.7851640000 9.2268973463 28.7073674047
Mg 12.7851640000 5.5361384078 31.3171280778
Mg 14.3833095000 8.3042076117 31.3171280778
Mg 14.3833095000 6.4588281424 33.9268887510
Mg 12.7851640000 9.2268973463 33.9268887510
Mg 12.7851640000 5.5361384078 36.5366494241
Mg 14.3833095000 8.3042076117 36.5366494241
Mg 14.3833095000 6.4588281424 39.1464100973
Mg 12.7851640000 9.2268973463 39.1464100973
Mg 12.7851640000 11.0722768156 0.0000000000
Mg 14.3833095000 13.8403460194 0.0000000000
Mg 14.3833095000 11.9949665502 2.6097606732
Mg 12.7851640000 14.7630357541 2.6097606732
Mg 12.7851640000 11.0722768156 5.2195213463
Mg 14.3833095000 13.8403460194 5.2195213463
Mg 14.3833095000 11.9949665502 7.8292820195
Mg 12.7851640000 14.7630357541 7.8292820195
Mg 12.7851640000 11.0722768156 10.4390426926
Mg 14.3833095000 13.8403460194 10.4390426926
Mg 14.3833095000 11.9949665502 13.0488033658
Mg 12.7851640000 14.7630357541 13.0488033658
Mg 12.7851640000 11.0722768156 15.6585640389
Mg 14.3833095000 13.8403460194 15.6585640389
Mg 14.3833095000 11.9949665502 18.2683247121
Mg 12.7851640000 14.7630357541 18.2683247121
Mg 12.7851640000 11.0722768156 20.8780853852
Mg 14.3833095000 13.8403460194 20.8780853852
Mg 14.3833095000 11.9949665502 23.4878460584
Mg 12.7851640000 14.7630357541 23.4878460584
Mg 12.7851640000 11.0722768156 26.0976067315
Mg 14.3833095000 13.8403460194 26.0976067315
Mg 14.3833095000 11.9949665502 28.7073674047
Mg 12.7851640000 14.7630357541 28.7073674047
Mg 12.7851640000 11.0722768156 31.3171280778
Mg 14.3833095000 13.8403460194 31.3171280778
Mg 14.3833095000 11.9949665502 33.9268887510
Mg 12.7851640000 14.7630357541 33.9268887510
Mg 12.7851640000 11.0722768156 36.5366494241
Mg 14.3833095000 13.8403460194 36.5366494241
Mg 14.3833095000 11.9949665502 39.1464100973
Mg 12.7851640000 14.7630357541 39.1464100973
Mg 12.7851640000 16.6084152233 0.0000000000
Mg 14.3833095000 19.3764844272 0.0000000000
Mg 14.3833095000 17.5311049580 2.6097606732
Mg 12.7851640000 20.2991741618 2.6097606732
Mg 12.7851640000 16.6084152233 5.2195213463
Mg 14.3833095000 19.3764844272 5.2195213463
Mg 14.3833095000 17.5311049580 7.8292820195
Mg 12.7851640000 20.2991741618 7.8292820195
Mg 12.7851640000 16.6084152233 10.4390426926
Mg 14.3833095000 19.3764844272 10.4390426926
Mg 14.3833095000 17.5311049580 13.0488033658
Mg 12.7851640000 20.2991741618 13.0488033658
Mg 12.7851640000 16.6084152233 15.6585640389
Mg 14.3833095000 19.3764844272 15.6585640389
Mg 14.3833095000 17.5311049580 18.2683247121
Mg 12.7851640000 20.2991741618 18.2683247121
Mg 12.7851640000 16.6084152233 20.8780853852
Mg 14.3833095000 19.3764844272 20.8780853852
Mg 14.3833095000 17.5311049580 23.4878460584
Mg 12.7851640000 20.2991741618 23.4878460584
Mg 12.7851640000 16.6084152233 26.0976067315
Mg 14.3833095000 19.3764844272 26.0976067315
Mg 14.3833095000 17.5311049580 28.7073674047
Mg 12.7851640000 20.2991741618 28.7073674047
Mg 12.7851640000 16.6084152233 31.3171280778
Mg 14.3833095000 19.3764844272 31.3171280778
Mg 14.3833095000 17.5311049580 33.9268887510
Mg 12.7851640000 20.2991741618 33.9268887510
Mg 12.7851640000 16.6084152233 36.5366494241
Mg 14.3833095000 19.3764844272 36.5366494241
Mg 14.3833095000 17.5311049580 39.1464100973
Mg 12.7851640000 20.2991741618 39.1464100973
Mg 12.7851640000 22.1445536311 0.0000000000
Mg 14.3833095000 24.9126228350 0.0000000000
Mg 14.3833095000 23.0672433657 2.6097606732
Mg 12.7851640000 25.8353125696 2.6097606732
Mg 12.7851640000 22.1445536311 5.2195213463
Mg 14.3833095000 24.9126228350 5.2195213463
Mg 14.3833095000 23.0672433657 7.8292820195
Mg 12.7851640000 25.8353125696 7.8292820195
Mg 12.7851640000 22.1445536311 10.4390426926
Mg 14.3833095000 24.9126228350 10.4390426926
Mg 14.3833095000 23.0672433657 13.0488033658
Mg 12.7851640000 25.8353125696 13.0488033658
Mg 12.7851640000 22.1445536311 15.6585640389
Mg 14.3833095000 24.9126228350 15.6585640389
Mg 14.3833095000 23.0672433657 18.2683247121
Mg 12.7851640000 25.8353125696 18.2683247121
Mg 12.7851640000 22.1445536311 20.8780853852
Mg 14.3833095000 24.9126228350 20.8780853852
Mg 14.3833095000 23.0672433657 23.4878460584
Mg 12.7851640000 25.8353125696 23.4878460584
Mg 12.7851640000 22.1445536311 26.0976067315
Mg 14.3833095000 24.9126228350 26.0976067315
Mg 14.3833095000 23.0672433657 28.7073674047
Mg 12.7851640000 25.8353125696 28.7073674047
Mg 12.7851640000 22.1445536311 31.3171280778
Mg 14.3833095000 24.9126228350 31.3171280778
Mg 14.3833095000 23.0672433657 33.9268887510
Mg 12.7851640000 25.8353125696 33.9268887510
Mg 12.7851640000 22.1445536311 36.5366494241
Mg 14.3833095000 24.9126228350 36.5366494241
Mg 14.3833095000 23.0672433657 39.1464100973
Mg 12.7851640000 25.8353125696 39.1464100973
Mg 12.7851640000 27.6806920389 0.0000000000
Mg 14.3833095000 30.4487612428 0.0000000000
Mg 14.3833095000 28.6033817735 2.6097606732
Mg 12.7851640000 31.3714509774 2.6097606732
Mg 12.7851640000 27.6806920389 5.2195213463
Mg 14.3833095000 30.4487612428 5.2195213463
Mg 14.3833095000 28.6033817735 7.8292820195
Mg 12.7851640000 31.3714509774 7.8292820195
Mg 12.7851640000 27.6806920389 10.4390426926
Mg 14.3833095000 30.4487612428 10.4390426926
Mg 14.3833095000 28.6033817735 13.0488033658
Mg 12.7851640000 31.3714509774 13.0488033658
Mg 12.7851640000 27.6806920389 15.6585640389
Mg 14.3833095000 30.4487612428 15.6585640389
Mg 14.3833095000 28.6033817735 18.2683247121
Mg 12.7851640000 31.3714509774 18.2683247121
Mg 12.7851640000 27.6806920389 20.8780853852
Mg 14.3833095000 30.4487612428 20.8780853852
Mg 14.3833095000 28.6033817735 23.4878460584
Mg 12.7851640000 31.3714509774 23.4878460584
Mg 12.7851640000 27.6806920389 26.0976067315
Mg 14.3833095000 30.4487612428 26.0976067315
Mg 14.3833095000 28.6033817735 28.7073674047
Mg 12.7851640000 31.3714509774 28.7073674047
Mg 12.7851640000 27.6806920389 31.3171280778
Mg 14.3833095000 30.4487612428 31.3171280778
Mg 14.3833095000 28.6033817735 33.9268887510
Mg 12.7851640000 31.3714509774 33.9268887510
Mg 12.7851640000 27.6806920389 36.5366494241
Mg 14.3833095000 30.4487612428 36.5366494241
Mg 14.3833095000 28.6033817735 39.1464100973
Mg 12.7851640000 31.3714509774 39.1464100973
Mg 12.7851640000 33.2168304467 0.0000000000
Mg 14.3833095000 35.9848996505 0.0000000000
Mg 14.3833095000 34.1395201813 2.6097606732
Mg 12.7851640000 36.9075893852 2.6097606732
Mg 12.7851640000 33.2168304467 5.2195213463
Mg 14.3833095000 35.9848996505 5.2195213463
Mg 14.3833095000 34.1395201813 7.8292820195
Mg 12.7851640000 36.9075893852 7.8292820195
Mg 12.7851640000 33.2168304467 10.4390426926
Mg 14.3833095000 35.9848996505 10.4390426926
Mg 14.3833095000 34.1395201813 13.0488033658
Mg 12.7851640000 36.9075893852 13.0488033658
Mg 12.7851640000 33.2168304467 15.6585640389
Mg 14.3833095000 35.9848996505 15.6585640389
Mg 14.3833095000 34.1395201813 18.2683247121
Mg 12.7851640000 36.9075893852 18.2683247121
Mg 12.7851640000 33.2168304467 20.8780853852
Mg 14.3833095000 35.9848996505 20.8780853852
Mg 14.3833095000 34.1395201813 23.4878460584
Mg 12.7851640000 36.9075893852 23.4878460584
Mg 12.7851640000 33.2168304467 26.0976067315
Mg 14.3833095000 35.9848996505 26.0976067315
Mg 14.3833095000 34.1395201813 28.7073674047
Mg 12.7851640000 36.9075893852 28.7073674047
Mg 12.7851640000 33.2168304467 31.3171280778
Mg 14.3833095000 35.9848996505 31.3171280778
Mg 14.3833095000 34.1395201813 33.9268887510
Mg 12.7851640000 36.9075893852 33.9268887510
Mg 12.7851640000 33.2168304467 36.5366494241
Mg 14.3833095000 35.9848996505 36.5366494241
Mg 14.3833095000 34.1395201813 39.1464100973
Mg 12.7851640000 36.9075893852 39.1464100973
Mg 12.7851640000 38.7529688544 0.0000000000
Mg 14.3833095000 41.5210380583 0.0000000000
Mg 14.3833095000 39.6756585891 2.6097606732
Mg 12.7851640000 42.4437277929 2.6097606732
Mg 12.7851640000 38.7529688544 5.2195213463
Mg 14.3833095000 41.5210380583 5.2195213463
Mg 14.3833095000 39.6756585891 7.8292820195
Mg 12.7851640000 42.4437277929 7.8292820195
Mg 12.7851640000 38.7529688544 10.4390426926
Mg 14.3833095000 41.5210380583 10.4390426926
Mg 14.3833095000 39.6756585891 13.0488033658
Mg 12.7851640000 42.4437277929 13.0488033658
Mg 12.7851640000 38.7529688544 15.6585640389
Mg 14.3833095000 41.5210380583 15.6585640389
Mg 14.3833095000 39.6756585891 18.2683247121
Mg 12.7851640000 42.4437277929 18.2683247121
Mg 12.7851640000 38.7529688544 20.8780853852
Mg 14.3833095000 41.5210380583 20.8780853852
Mg 14.3833095000 39.6756585891 23.4878460584
Mg 12.7851640000 42.4437277929 23.4878460584
Mg 12.7851640000 38.7529688544 26.0976067315
Mg 14.3833095000 41.5210380583 26.0976067315
Mg 14.3833095000 39.6756585891 28.7073674047
Mg 12.7851640000 42.4437277929 28.7073674047
Mg 12.7851640000 38.7529688544 31.3171280778
Mg 14.3833095000 41.5210380583 31.3171280778
Mg 14.3833095000 39.6756585891 33.9268887510
Mg 12.7851640000 42.4437277929 33.9268887510
Mg 12.7851640000 38.7529688544 36.5366494241
Mg 14.3833095000 41.5210380583 36.5366494241
Mg 14.3833095000 39.6756585891 39.1464100973
Mg 12.7851640000 42.4437277929 39.1464100973
Mg 15.9814550000 0.0000000000 0.0000000000
Mg 17.5796005000 2.7680692039 0.0000000000
Mg 17.5796005000 0.9226897346 2.6097606732
Mg 15.9814550000 3.6907589385 2.6097606732
Mg 15.9814550000 0.0000000000 5.2195213463
Mg 17.5796005000 2.7680692039 5.2195213463
Mg 17.5796005000 0.9226897346 7.8292820195
Mg 15.9814550000 3.6907589385 7.8292820195
Mg 15.9814550000 0.0000000000 10.4390426926
Mg 17.5796005000 2.7680692039 10.4390426926
Mg 17.5796005000 0.9226897346 13.0488033658
Mg 15.9814550000 3.6907589385 13.0488033658
Mg 15.9814550000 0.0000000000 15.6585640389
Mg 17.5796005000 2.7680692039 15.6585640389
Mg 17.5796005000 0.9226897346 18.2683247121
Mg 15.9814550000 3.6907589385 18.2683247121
Mg 15.9814550000 0.0000000000 20.8780853852
Mg 17.5796005000 2.7680692039 20.8780853852
Mg 17.5796005000 0.9226897346 23.4878460584
Mg 15.9814550000 3.6907589385 23.4878460584
Mg 15.9814550000 0.0000000000 26.0976067315
Mg 17.5796005000 2.7680692039 26.0976067315
Mg 17.5796005000 0.9226897346 28.7073674047
Mg 15.9814550000 3.6907589385 28.7073674047
Mg 15.9814550000 0.0000000000 31.3171280778
Mg 17.5796005000 2.7680692039 31.3171280778
Mg 17.5796005000 0.9226897346 33.9268887510
Mg 15.9814550000 3.6907589385 33.9268887510
Mg 15.9814550000 0.0000000000 36.5366494241
Mg 17.5796005000 2.7680692039 36.5366494241
Mg 17.5796005000 0.9226897346 39.1464100973
Mg 15.9814550000 3.6907589385 39.1464100973
Mg 15.9814550000 5.5361384078 0.0000000000
Mg 17.5796005000 8.3042076117 0.0000000000
Mg 17.5796005000 6.4588281424 2.6097606732
Mg 15.9814550000 9.2268973463 2.6097606732
Mg 15.9814550000 5.5361384078 5.2195213463
Mg 17.5796005000 8.3042076117 5.2195213463
Mg 17.5796005000 6.4588281424 7.8292820195
Mg 15.9814550000 9.2268973463 7.8292820195
Mg 15.9814550000 5.5361384078 10.4390426926
Mg 17.5796005000 8.3042076117 10.4390426926
Mg 17.5796005000 6.4588281424 13.0488033658
Mg 15.9814550000 9.2268973463 13.0488033658
Mg 15.9814550000 5.5361384078 15.6585640389
Mg 17.5796005000 8.3042076117 15.6585640389
Mg 17.5796005000 6.4588281424 18.2683247121
Mg 15.9814550000 9.2268973463 18.2683247121
Mg 15.9814550000 5.5361384078 20.8780853852
Mg 17.5796005000 8.3042076117 20.8780853852
Mg 17.5796005000 6.4588281424 23.4878460584
Mg 15.9814550000 9.2268973463 23.4878460584
Mg 15.9814550000 5.5361384078 26.0976067315
Mg 17.5796005000 8.3042076117 26.0976067315
Mg 17.5796005000 6.4588281424 28.7073674047
Mg 15.9814550000 9.2268973463 28.7073674047
Mg 15.9814550000 5.5361384078 31.3171280778
Mg 17.5796005000 8.3042076117 31.3171280778
Mg 17.5796005000 6.4588281424 33.9268887510
Mg 15.9814550000 9.2268973463 33.9268887510
Mg 15.9814550000 5.5361384078 36.5366494241
Mg 17.5796005000 8.3042076117 36.5366494241
Mg 17.5796005000 6.4588281424 39.1464100973
Mg 15.9814550000 9.2268973463 39.1464100973
Mg 15.9814550000 11.0722768156 0.0000000000
Mg 17.5796005000 13.8403460194 0.0000000000
Mg 17.5796005000 11.9949665502 2.6097606732
Mg 15.9814550000 14.7630357541 2.6097606732
Mg 15.9814550000 11.0722768156 5.2195213463
Mg 17.5796005000 13.8403460194 5.2195213463
Mg 17.5796005000 11.9949665502 7.8292820195
Mg 15.9814550000 14.7630357541 7.8292820195
Mg 15.9814550000 11.0722768156 10.4390426926
Mg 17.5796005000 13.8403460194 10.4390426926
Mg 17.5796005000 11.9949665502 13.0488033658
Mg 15.9814550000 14.7630357541 13.0488033658
Mg 15.9814550000 11.0722768156 15.6585640389
Mg 17.5796005000 13.8403460194 15.6585640389
Mg 17.5796005000 11.9949665502 18.2683247121
Mg 15.9814550000 14.7630357541 18.2683247121
Mg 15.9814550000 11.0722768156 20.8780853852
Mg 17.5796005000 13.8403460194 20.8780853852
Mg 17.5796005000 11.9949665502 23.4878460584
Mg 15.9814550000 14.7630357541 23.4878460584
Mg 15.9814550000 11.0722768156 26.0976067315
Mg 17.5796005000 13.8403460194 26.0976067315
Mg 17.5796005000 11.9949665502 28.7073674047
Mg 15.9814550000 14.7630357541 28.7073674047
Mg 15.9814550000 11.0722768156 31.3171280778
Mg 17.5796005000 13.8403460194 31.3171280778
Mg 17.5796005000 11.9949665502 33.9268887510
Mg 15.9814550000 14.7630357541 33.9268887510
Mg 15.9814550000 11.0722768156 36.5366494241
Mg 17.5796005000 13.8403460194 36.5366494241
Mg 17.5796005000 11.9949665502 39.1464100973
Mg 15.9814550000 14.7630357541 39.1464100973
Mg 15.9814550000 16.6084152233 0.0000000000
Mg 17.5796005000 19.3764844272 0.0000000000
Mg 17.5796005000 17.5311049580 2.6097606732
Mg 15.9814550000 20.2991741618 2.6097606732
Mg 15.9814550000 16.6084152233 5.2195213463
Mg 17.5796005000 19.3764844272 5.2195213463
Mg 17.5796005000 17.5311049580 7.8292820195
Mg 15.9814550000 20.2991741618 7.8292820195
Mg 15.9814550000 16.6084152233 10.4390426926
Mg 17.5796005000 19.3764844272 10.4390426926
Mg 17.5796005000 17.5311049580 13.0488033658
Mg 15.9814550000 20.2991741618 13.0488033658
Mg 15.9814550000 16.6084152233 15.6585640389
Mg 17.5796005000 19.3764844272 15.6585640389
Mg 17.5796005000 17.5311049580 18.2683247121
Mg 15.9814550000 20.2991741618 18.2683247121
Mg 15.9814550000 16.6084152233 20.8780853852
Mg 17.5796005000 19.3764844272 20.8780853852
Mg 17.5796005000 17.5311049580 23.4878460584
Mg 15.9814550000 20.2991741618 23.4878460584
Mg 15.9814550000 16.6084152233 26.0976067315
Mg 17.5796005000 19.3764844272 26.0976067315
Mg 17.5796005000 17.5311049580 28.7073674047
Mg 15.9814550000 20.2991741618 28.7073674047
Mg 15.9814550000 16.6084152233 31.3171280778
Mg 17.5796005000 19.3764844272 31.3171280778
Mg 17.5796005000 17.5311049580 33.9268887510
Mg 15.9814550000 20.2991741618 33.9268887510
Mg 15.9814550000 16.6084152233 36.5366494241
Mg 17.5796005000 19.3764844272 36.5366494241
Mg 17.5796005000 17.5311049580 39.1464100973
Mg 15.9814550000 20.2991741618 39.1464100973
Mg 15.9814550000 22.1445536311 0.0000000000
Mg 17.5796005000 24.9126228350 0.0000000000
Mg 17.5796005000 23.0672433657 2.6097606732
Mg 15.9814550000 25.8353125696 2.6097606732
Mg 15.9814550000 22.1445536311 5.2195213463
Mg 17.5796005000 24.9126228350 5.2195213463
Mg 17.5796005000 23.0672433657 7.8292820195
Mg 15.9814550000 25.8353125696 7.8292820195
Mg 15.9814550000 22.1445536311 10.4390426926
Mg 17.5796005000 24.9126228350 10.4390426926
Mg 17.5796005000 23.0672433657 13.0488033658
Mg 15.9814550000 25.8353125696 13.0488033658
Mg 15.9814550000 22.1445536311 15.6585640389
Mg 17.5796005000 24.9126228350 15.6585640389
Mg 17.5796005000 23.0672433657 18.2683247121
Mg 15.9814550000 25.8353125696 18.2683247121
Mg 15.9814550000 22.1445536311 20.8780853852
Mg 17.5796005000 24.9126228350 20.8780853852
Mg 17.5796005000 23.0672433657 23.4878460584
Mg 15.9814550000 25.8353125696 23.4878460584
Mg 15.9814550000 22.1445536311 26.0976067315
Mg 17.5796005000 24.9126228350 26.0976067315
Mg 17.5796005000 23.0672433657 28.7073674047
Mg 15.9814550000 25.8353125696 28.7073674047
Mg 15.9814550000 22.1445536311 31.3171280778
Mg 17.5796005000 24.9126228350 31.3171280778
Mg 17.5796005000 23.0672433657 33.9268887510
Mg 15.9814550000 25.8353125696 33.9268887510
Mg 15.9814550000 22.1445536311 36.5366494241
Mg 17.5796005000 24.9126228350 36.5366494241
Mg 17.5796005000 23.0672433657 39.1464100973
Mg 15.9814550000 25.8353125696 39.1464100973
Mg 15.9814550000 27.6806920389 0.0000000000
Mg 17.5796005000 30.4487612428 0.0000000000
Mg 17.5796005000 28.6033817735 2.6097606732
Mg 15.9814550000 31.3714509774 2.6097606732
Mg 15.9814550000 27.6806920389 5.2195213463
Mg 17.5796005000 30.4487612428 5.2195213463
Mg 17.5796005000 28.6033817735 7.8292820195
Mg 15.9814550000 31.3714509774 7.8292820195
Mg 15.9814550000 27.6806920389 10.4390426926
Mg 17.5796005000 30.4487612428 10.4390426926
Mg 17.5796005000 28.6033817735 13.0488033658
Mg 15.9814550000 31.3714509774 13.0488033658
Mg 15.9814550000 27.6806920389 15.6585640389
Mg 17.5796005000 30.4487612428 15.6585640389
Mg 17.5796005000 28.6033817735 18.2683247121
Mg 15.9814550000 31.3714509774 18.2683247121
Mg 15.9814550000 27.6806920389 20.8780853852
Mg 17.5796005000 30.4487612428 20.8780853852
Mg 17.5796005000 28.6033817735 23.4878460584
Mg 15.9814550000 31.3714509774 23.4878460584
Mg 15.9814550000 27.6806920389 26.0976067315
Mg 17.5796005000 30.4487612428 26.0976067315
Mg 17.5796005000 28.6033817735 28.7073674047
Mg 15.9814550000 31.3714509774 28.7073674047
Mg 15.9814550000 27.6806920389 31.3171280778
Mg 17.5796005000 30.4487612428 31.3171280778
Mg 17.5796005000 28.6033817735 33.9268887510
Mg 15.9814550000 31.3714509774 33.9268887510
Mg 15.9814550000 27.6806920389 36.5366494241
Mg 17.5796005000 30.4487612428 36.5366494241
Mg 17.5796005000 28.6033817735 39.1464100973
Mg 15.9814550000 31.3714509774 39.1464100973
Mg 15.9814550000 33.2168304467 0.0000000000
Mg 17.5796005000 35.9848996505 0.0000000000
Mg 17.5796005000 34.1395201813 2.6097606732
Mg 15.9814550000 36.9075893852 2.6097606732
Mg 15.9814550000 33.2168304467 5.2195213463
Mg 17.5796005000 35.9848996505 5.2195213463
Mg 17.5796005000 34.1395201813 7.8292820195
Mg 15.9814550000 36.9075893852 7.8292820195
Mg 15.9814550000 33.2168304467 10.4390426926
Mg 17.5796005000 35.9848996505 10.4390426926
Mg 17.5796005000 34.1395201813 13.0488033658
Mg 15.9814550000 36.9075893852 13.0488033658
Mg 15.9814550000 33.2168304467 15.6585640389
Mg 17.5796005000 35.9848996505 15.6585640389
Mg 17.5796005000 34.1395201813 18.2683247121
Mg 15.9814550000 36.9075893852 18.2683247121
Mg 15.9814550000 33.2168304467 20.8780853852
Mg 17.5796005000 35.9848996505 20.8780853852
Mg 17.5796005000 34.1395201813 23.4878460584
Mg 15.9814550000 36.9075893852 23.4878460584
Mg 15.9814550000 33.2168304467 26.0976067315
Mg 17.5796005000 35.9848996505 26.0976067315
Mg 17.5796005000 34.1395201813 28.7073674047
Mg 15.9814550000 36.9075893852 28.7073674047
Mg 15.9814550000 33.2168304467 31.3171280778
Mg 17.5796005000 35.9848996505 31.3171280778
Mg 17.5796005000 34.1395201813 33.9268887510
Mg 15.9814550000 36.9075893852 33.9268887510
Mg 15.9814550000 33.2168304467 36.5366494241
Mg 17.5796005000 35.9848996505 36.5366494241
Mg 17.5796005000 34.1395201813 39.1464100973
Mg 15.9814550000 36.9075893852 39.1464100973
Mg 15.9814550000 38.7529688544 0.0000000000
Mg 17.5796005000 41.5210380583 0.0000000000
Mg 17.5796005000 39.6756585891 2.6097606732
Mg 15.9814550000 42.4437277929 2.6097606732
Mg 15.9814550000 38.7529688544 5.2195213463
Mg 17.5796005000 41.5210380583 5.2195213463
Mg 17.5796005000 39.6756585891 7.8292820195
Mg 15.9814550000 42.4437277929 7.8292820195
Mg 15.9814550000 38.7529688544 10.4390426926
Mg 17.5796005000 41.5210380583 10.4390426926
Mg 17.5796005000 39.6756585891 13.0488033658
Mg 15.9814550000 42.4437277929 13.0488033658
Mg 15.9814550000 38.7529688544 15.6585640389
Mg 17.5796005000 41.5210380583 15.6585640389
Mg 17.5796005000 39.6756585891 18.2683247121
Mg 15.9814550000 42.4437277929 18.2683247121
Mg 15.9814550000 38.7529688544 20.8780853852
Mg 17.5796005000 41.5210380583 20.8780853852
Mg 17.5796005000 39.6756585891 23.4878460584
Mg 15.9814550000 42.4437277929 23.4878460584
Mg 15.9814550000 38.7529688544 26.0976067315
Mg 17.5796005000 41.5210380583 26.0976067315
Mg 17.5796005000 39.6756585891 28.7073674047
Mg 15.9814550000 42.4437277929 28.7073674047
Mg 15.9814550000 38.7529688544 31.3171280778
Mg 17.5796005000 41.5210380583 31.3171280778
Mg 17.5796005000 39.6756585891 33.9268887510
Mg 15.9814550000 42.4437277929 33.9268887510
Mg 15.9814550000 38.7529688544 36.5366494241
Mg 17.5796005000 41.5210380583 36.5366494241
Mg 17.5796005000 39.6756585891 39.1464100973
Mg 15.9814550000 42.4437277929 39.1464100973
Mg 19.1777460000 0.0000000000 0.0000000000
Mg 20.7758915000 2.7680692039 0.0000000000
Mg 20.7758915000 0.9226897346 2.6097606732
Mg 19.1777460000 3.6907589385 2.6097606732
Mg 19.1777460000 0.0000000000 5.2195213463
Mg 20.7758915000 2.7680692039 5.2195213463
Mg 20.7758915000 0.9226897346 7.8292820195
Mg 19.1777460000 3.6907589385 7.8292820195
Mg 19.1777460000 0.0000000000 10.4390426926
Mg 20.7758915000 2.7680692039 10.4390426926
Mg 20.7758915000 0.9226897346 13.0488033658
Mg 19.1777460000 3.6907589385 13.0488033658
Mg 19.1777460000 0.0000000000 15.6585640389
Mg 20.7758915000 2.7680692039 15.6585640389
Mg 20.7758915000 0.9226897346 18.2683247121
Mg 19.1777460000 3.6907589385 18.2683247121
Mg 19.1777460000 0.0000000000 20.8780853852
Mg 20.7758915000 2.7680692039 20.8780853852
Mg 20.7758915000 0.9226897346 23.4878460584
Mg 19.1777460000 3.6907589385 23.4878460584
Mg 19.1777460000 0.0000000000 26.0976067315
Mg 20.7758915000 2.7680692039 26.0976067315
Mg 20.7758915000 0.9226897346 28.7073674047
Mg 19.1777460000 3.6907589385 28.7073674047
Mg 19.1777460000 0.0000000000 31.3171280778
Mg 20.7758915000 2.7680692039 31.3171280778
Mg 20.7758915000 0.9226897346 33.9268887510
Mg 19.1777460000 3.6907589385 33.9268887510
Mg 19.1777460000 0.0000000000 36.5366494241
Mg 20.7758915000 2.7680692039 36.5366494241
Mg 20.7758915000 0.9226897346 39.1464100973
Mg 19.1777460000 3.6907589385 39.1464100973
Mg 19.1777460000 5.5361384078 0.0000000000
Mg 20.7758915000 8.3042076117 0.0000000000
Mg 20.7758915000 6.4588281424 2.6097606732
Mg 19.1777460000 9.2268973463 2.6097606732
Mg 19.1777460000 5.5361384078 5.2195213463
Mg 20.7758915000 8.3042076117 5.2195213463
Mg 20.7758915000 6.4588281424 7.8292820195
Mg 19.1777460000 9.2268973463 7.8292820195
Mg 19.1777460000 5.5361384078 10.4390426926
Mg 20.7758915000 8.3042076117 10.4390426926
Mg 20.7758915000 6.4588281424 13.0488033658
Mg 19.1777460000 9.2268973463 13.0488033658
Mg 19.1777460000 5.5361384078 15.6585640389
Mg 20.7758915000 8.3042076117 15.6585640389
Mg 20.7758915000 6.4588281424 18.2683247121
Mg 19.1777460000 9.2268973463 18.2683247121
Mg 19.1777460000 5.5361384078 20.8780853852
Mg 20.7758915000 8.3042076117 20.8780853852
Mg 20.7758915000 6.4588281424 23.4878460584
Mg 19.1777460000 9.2268973463 23.4878460584
Mg 19.1777460000 5.5361384078 26.0976067315
Mg 20.7758915000 8.3042076117 26.0976067315
Mg 20.7758915000 6.4588281424 28.7073674047
Mg 19.1777460000 9.2268973463 28.7073674047
Mg 19.1777460000 5.5361384078 31.3171280778
Mg 20.7758915000 8.3042076117 31.3171280778
Mg 20.7758915000 6.4588281424 33.9268887510
Mg 19.1777460000 9.2268973463 33.9268887510
Mg 19.1777460000 5.5361384078 36.5366494241
Mg 20.7758915000 8.3042076117 36.5366494241
Mg 20.7758915000 6.4588281424 39.1464100973
Mg 19.1777460000 9.2268973463 39.1464100973
Mg 19.1777460000 11.0722768156 0.0000000000
Mg 20.7758915000 13.8403460194 0.0000000000
Mg 20.7758915000 11.9949665502 2.6097606732
Mg 19.1777460000 14.7630357541 2.6097606732
Mg 19.1777460000 11.0722768156 5.2195213463
Mg 20.7758915000 13.8403460194 5.2195213463
Mg 20.7758915000 11.9949665502 7.8292820195
Mg 19.1777460000 14.7630357541 7.8292820195
Mg 19.1777460000 11.0722768156 10.4390426926
Mg 20.7758915000 13.8403460194 10.4390426926
Mg 20.7758915000 11.9949665502 13.0488033658
Mg 19.1777460000 14.7630357541 13.0488033658
Mg 19.1777460000 11.0722768156 15.6585640389
Mg 20.7758915000 13.8403460194 15.6585640389
Mg 20.7758915000 11.9949665502 18.2683247121
Mg 19.1777460000 14.7630357541 18.2683247121
Mg 19.1777460000 11.0722768156 20.8780853852
Mg 20.7758915000 13.8403460194 20.8780853852
Mg 20.7758915000 11.9949665502 23.4878460584
Mg 19.1777460000 14.7630357541 23.4878460584
Mg 19.1777460000 11.0722768156 26.0976067315
Mg 20.7758915000 13.8403460194 26.0976067315
Mg 20.7758915000 11.9949665502 28.7073674047
Mg 19.1777460000 14.7630357541 28.7073674047
Mg 19.1777460000 11.0722768156 31.3171280778
Mg 20.7758915000 13.8403460194 31.3171280778
Mg 20.7758915000 11.9949665502 33.9268887510
Mg 19.1777460000 14.7630357541 33.9268887510
Mg 19.1777460000 11.0722768156 36.5366494241
Mg 20.7758915000 13.8403460194 36.5366494241
Mg 20.7758915000 11.9949665502 39.1464100973
Mg 19.1777460000 14.7630357541 39.1464100973
Mg 19.1777460000 16.6084152233 0.0000000000
Mg 20.7758915000 19.3764844272 0.0000000000
Mg 20.7758915000 17.5311049580 2.6097606732
Mg 19.1777460000 20.2991741618 2.6097606732
Mg 19.1777460000 16.6084152233 5.2195213463
Mg 20.7758915000 19.3764844272 5.2195213463
Mg 20.7758915000 17.5311049580 7.8292820195
Mg 19.1777460000 20.2991741618 7.8292820195
Mg 19.1777460000 16.6084152233 10.4390426926
Mg 20.7758915000 19.3764844272 10.4390426926
Mg 20.7758915000 17.5311049580 13.0488033658
Mg 19.1777460000 20.2991741618 13.0488033658
Mg 19.1777460000 16.6084152233 15.6585640389
Mg 20.7758915000 19.3764844272 15.6585640389
Mg 20.7758915000 17.5311049580 18.2683247121
Mg 19.1777460000 20.2991741618 18.2683247121
Mg 19.1777460000 16.6084152233 20.8780853852
Mg 20.7758915000 19.3764844272 20.8780853852
Mg 20.7758915000 17.5311049580 23.4878460584
Mg 19.1777460000 20.2991741618 23.4878460584
Mg 19.1777460000 16.6084152233 26.0976067315
Mg 20.7758915000 19.3764844272 26.0976067315
Mg 20.7758915000 17.5311049580 28.7073674047
Mg 19.1777460000 20.2991741618 28.7073674047
Mg 19.1777460000 16.6084152233 31.3171280778
Mg 20.7758915000 19.3764844272 31.3171280778
Mg 20.7758915000 17.5311049580 33.9268887510
Mg 19.1777460000 20.2991741618 33.9268887510
Mg 19.1777460000 16.6084152233 36.5366494241
Mg 20.7758915000 19.3764844272 36.5366494241
Mg 20.7758915000 17.5311049580 39.1464100973
Mg 19.1777460000 20.2991741618 39.1464100973
Mg 19.1777460000 22.1445536311 0.0000000000
Mg 20.7758915000 24.9126228350 0.0000000000
Mg 20.7758915000 23.0672433657 2.6097606732
Mg 19.1777460000 25.8353125696 2.6097606732
Mg 19.1777460000 22.1445536311 5.2195213463
Mg 20.7758915000 24.9126228350 5.2195213463
Mg 20.7758915000 23.0672433657 7.8292820195
Mg 19.1777460000 25.8353125696 7.8292820195
Mg 19.1777460000 22.1445536311 10.4390426926
Mg 20.7758915000 24.9126228350 10.4390426926
Mg 20.7758915000 23.0672433657 13.0488033658
Mg 19.1777460000 25.8353125696 13.0488033658
Mg 19.1777460000 22.1445536311 15.6585640389
Mg 20.7758915000 24.9126228350 15.6585640389
Mg 20.7758915000 23.0672433657 18.2683247121
Mg 19.1777460000 25.8353125696 18.2683247121
Mg 19.1777460000 22.1445536311 20.8780853852
Mg 20.7758915000 24.9126228350 20.8780853852
Mg 20.7758915000 23.0672433657 23.4878460584
Mg 19.1777460000 25.8353125696 23.4878460584
Mg 19.1777460000 22.1445536311 26.0976067315
Mg 20.7758915000 24.9126228350 26.0976067315
Mg 20.7758915000 23.0672433657 28.7073674047
Mg 19.1777460000 25.8353125696 28.7073674047
Mg 19.1777460000 22.1445536311 31.3171280778
Mg 20.7758915000 24.9126228350 31.3171280778
Mg 20.7758915000 23.0672433657 33.9268887510
Mg 19.1777460000 25.8353125696 33.9268887510
Mg 19.1777460000 22.1445536311 36.5366494241
Mg 20.7758915000 24.9126228350 36.5366494241
Mg 20.7758915000 23.0672433657 39.1464100973
Mg 19.1777460000 25.8353125696 39.1464100973
Mg 19.1777460000 27.6806920389 0.0000000000
Mg 20.7758915000 30.4487612428 0.0000000000
Mg 20.7758915000 28.6033817735 2.6097606732
Mg 19.1777460000 31.3714509774 2.6097606732
Mg 19.1777460000 27.6806920389 5.2195213463
Mg 20.7758915000 30.4487612428 5.2195213463
Mg 20.7758915000 28.6033817735 7.8292820195
Mg 19.1777460000 31.3714509774 7.8292820195
Mg 19.1777460000 27.6806920389 10.4390426926
Mg 20.7758915000 30.4487612428 10.4390426926
Mg 20.7758915000 28.6033817735 13.0488033658
Mg 19.1777460000 31.3714509774 13.0488033658
Mg 19.1777460000 27.6806920389 15.6585640389
Mg 20.7758915000 30.4487612428 15.6585640389
Mg 20.7758915000 28.6033817735 18.2683247121
Mg 19.1777460000 31.3714509774 18.2683247121
Mg 19.1777460000 27.6806920389 20.8780853852
Mg 20.7758915000 30.4487612428 20.8780853852
Mg 20.7758915000 28.6033817735 23.4878460584
Mg 19.1777460000 31.3714509774 23.4878460584
Mg 19.1777460000 27.6806920389 26.0976067315
Mg 20.7758915000 30.4487612428 26.0976067315
Mg 20.7758915000 28.6033817735 28.7073674047
Mg 19.1777460000 31.3714509774 28.7073674047
Mg 19.1777460000 27.6806920389 31.3171280778
Mg 20.7758915000 30.4487612428 31.3171280778
Mg 20.7758915000 28.6033817735 33.9268887510
Mg 19.1777460000 31.3714509774 33.9268887510
Mg 19.1777460000 27.6806920389 36.5366494241
Mg 20.7758915000 30.4487612428 36.5366494241
Mg 20.7758915000 28.6033817735 39.1464100973
Mg 19.1777460000 31.3714509774 39.1464100973
Mg 19.1777460000 33.2168304467 0.0000000000
Mg 20.7758915000 35.9848996505 0.0000000000
Mg 20.7758915000 34.1395201813 2.6097606732
Mg 19.1777460000 36.9075893852 2.6097606732
Mg 19.1777460000 33.2168304467 5.2195213463
Mg 20.7758915000 35.9848996505 5.2195213463
Mg 20.7758915000 34.1395201813 7.8292820195
Mg 19.1777460000 36.9075893852 7.8292820195
Mg 19.1777460000 33.2168304467 10.4390426926
Mg 20.7758915000 35.9848996505 10.4390426926
Mg 20.7758915000 34.1395201813 13.0488033658
Mg 19.1777460000 36.9075893852 13.0488033658
Mg 19.1777460000 33.2168304467 15.6585640389
Mg 20.7758915000 35.9848996505 15.6585640389
Mg 20.7758915000 34.1395201813 18.2683247121
Mg 19.1777460000 36.9075893852 18.2683247121
Mg 19.1777460000 33.2168304467 20.8780853852
Mg 20.7758915000 35.9848996505 20.8780853852
Mg 20.7758915000 34.1395201813 23.4878460584
Mg 19.1777460000 36.9075893852 23.4878460584
Mg 19.1777460000 33.2168304467 26.0976067315
Mg 20.7758915000 35.9848996505 26.0976067315
Mg 20.7758915000 34.1395201813 28.7073674047
Mg 19.1777460000 36.9075893852 28.7073674047
Mg 19.1777460000 33.2168304467 31.3171280778
Mg 20.7758915000 35.9848996505 31.3171280778
Mg 20.7758915000 34.1395201813 33.9268887510
Mg 19.1777460000 36.9075893852 33.9268887510
Mg 19.1777460000 33.2168304467 36.5366494241
Mg 20.7758915000 35.9848996505 36.5366494241
Mg 20.7758915000 34.1395201813 39.1464100973
Mg 19.1777460000 36.9075893852 39.1464100973
Mg 19.1777460000 38.7529688544 0.0000000000
Mg 20.7758915000 41.5210380583 0.0000000000
Mg 20.7758915000 39.6756585891 2.6097606732
Mg 19.1777460000 42.4437277929 2.6097606732
Mg 19.1777460000 38.7529688544 5.2195213463
Mg 20.7758915000 41.5210380583 5.2195213463
Mg 20.7758915000 39.6756585891 7.8292820195
Mg 19.1777460000 42.4437277929 7.8292820195
Mg 19.1777460000 38.7529688544 10.4390426926
Mg 20.7758915000 41.5210380583 10.4390426926
Mg 20.7758915000 39.6756585891 13.0488033658
Mg 19.1777460000 42.4437277929 13.0488033658
Mg 19.1777460000 38.7529688544 15.6585640389
Mg 20.7758915000 41.5210380583 15.6585640389
Mg 20.7758915000 39.6756585891 18.2683247121
Mg 19.1777460000 42.4437277929 18.2683247121
Mg 19.1777460000 38.7529688544 20.8780853852
Mg 20.7758915000 41.5210380583 20.8780853852
Mg 20.7758915000 39.6756585891 23.4878460584
Mg 19.1777460000 42.4437277929 23.4878460584
Mg 19.1777460000 38.7529688544 26.0976067315
Mg 20.7758915000 41.5210380583 26.0976067315
Mg 20.7758915000 39.6756585891 28.7073674047
Mg 19.1777460000 42.4437277929 28.7073674047
Mg 19.1777460000 38.7529688544 31.3171280778
Mg 20.7758915000 41.5210380583 31.3171280778
Mg 20.7758915000 39.6756585891 33.9268887510
Mg 19.1777460000 42.4437277929 33.9268887510
Mg 19.1777460000 38.7529688544 36.5366494241
Mg 20.7758915000 41.5210380583 36.5366494241
Mg 20.7758915000 39.6756585891 39.1464100973
Mg 19.1777460000 42.4437277929 39.1464100973
Mg 22.3740370000 0.0000000000 0.0000000000
Mg 23.9721825000 2.7680692039 0.0000000000
Mg 23.9721825000 0.9226897346 2.6097606732
Mg 22.3740370000 3.6907589385 2.6097606732
Mg 22.3740370000 0.0000000000 5.2195213463
Mg 23.9721825000 2.7680692039 5.2195213463
Mg 23.9721825000 0.9226897346 7.8292820195
Mg 22.3740370000 3.6907589385 7.8292820195
Mg 22.3740370000 0.0000000000 10.4390426926
Mg 23.9721825000 2.7680692039 10.4390426926
Mg 23.9721825000 0.9226897346 13.0488033658
Mg 22.3740370000 3.6907589385 13.0488033658
Mg 22.3740370000 0.0000000000 15.6585640389
Mg 23.9721825000 2.7680692039 15.6585640389
Mg 23.9721825000 0.9226897346 18.2683247121
Mg 22.3740370000 3.6907589385 18.2683247121
Mg 22.3740370000 0.0000000000 20.8780853852
Mg 23.9721825000 2.7680692039 20.8780853852
Mg 23.9721825000 0.9226897346 23.4878460584
Mg 22.3740370000 3.6907589385 23.4878460584
Mg 22.3740370000 0.0000000000 26.0976067315
Mg 23.9721825000 2.7680692039 26.0976067315
Mg 23.9721825000 0.9226897346 28.7073674047
Mg 22.3740370000 3.6907589385 28.7073674047
Mg 22.3740370000 0.0000000000 31.3171280778
Mg 23.9721825000 2.7680692039 31.3171280778
Mg 23.9721825000 0.9226897346 33.9268887510
Mg 22.3740370000 3.6907589385 33.9268887510
Mg 22.3740370000 0.0000000000 36.5366494241
Mg 23.9721825000 2.7680692039 36.5366494241
Mg 23.9721825000 0.9226897346 39.1464100973
Mg 22.3740370000 3.6907589385 39.1464100973
Mg 22.3740370000 5.5361384078 0.0000000000
Mg 23.9721825000 8.3042076117 0.0000000000
Mg 23.9721825000 6.4588281424 2.6097606732
Mg 22.3740370000 9.2268973463 2.6097606732
Mg 22.3740370000 5.5361384078 5.2195213463
Mg 23.9721825000 8.3042076117 5.2195213463
Mg 23.9721825000 6.4588281424 7.8292820195
Mg 22.3740370000 9.2268973463 7.8292820195
Mg 22.3740370000 5.5361384078 10.4390426926
Mg 23.9721825000 8.3042076117 10.4390426926
Mg 23.9721825000 6.4588281424 13.0488033658
Mg 22.3740370000 9.2268973463 13.0488033658
Mg 22.3740370000 5.5361384078 15.6585640389
Mg 23.9721825000 8.3042076117 15.6585640389
Mg 23.9721825000 6.4588281424 18.2683247121
Mg 22.3740370000 9.2268973463 18.2683247121
Mg 22.3740370000 5.5361384078 20.8780853852
Mg 23.9721825000 8.3042076117 20.8780853852
Mg 23.9721825000 6.4588281424 23.4878460584
Mg 22.3740370000 9.2268973463 23.4878460584
Mg 22.3740370000 5.5361384078 26.0976067315
Mg 23.9721825000 8.3042076117 26.0976067315
Mg 23.9721825000 6.4588281424 28.7073674047
Mg 22.3740370000 9.2268973463 28.7073674047
Mg 22.3740370000 5.5361384078 31.3171280778
Mg 23.9721825000 8.3042076117 31.3171280778
Mg 23.9721825000 6.4588281424 33.9268887510
Mg 22.3740370000 9.2268973463 33.9268887510
Mg 22.3740370000 5.5361384078 36.5366494241
Mg 23.9721825000 8.3042076117 36.5366494241
Mg 23.9721825000 6.4588281424 39.1464100973
Mg 22.3740370000 9.2268973463 39.1464100973
Mg 22.3740370000 11.0722768156 0.0000000000
Mg 23.9721825000 13.8403460194 0.0000000000
Mg 23.9721825000 11.9949665502 2.6097606732
Mg 22.3740370000 14.7630357541 2.6097606732
Mg 22.3740370000 11.0722768156 5.2195213463
Mg 23.9721825000 13.8403460194 5.2195213463
Mg 23.9721825000 11.9949665502 7.8292820195
Mg 22.3740370000 14.7630357541 7.8292820195
Mg 22.3740370000 11.0722768156 10.4390426926
Mg 23.9721825000 13.8403460194 10.4390426926
Mg 23.9721825000 11.9949665502 13.0488033658
Mg 22.3740370000 14.7630357541 13.0488033658
Mg 22.3740370000 11.0722768156 15.6585640389
Mg 23.9721825000 13.8403460194 15.6585640389
Mg 23.9721825000 11.9949665502 18.2683247121
Mg 22.3740370000 14.7630357541 18.2683247121
Mg 22.3740370000 11.0722768156 20.8780853852
Mg 23.9721825000 13.8403460194 20.8780853852
Mg 23.9721825000 11.9949665502 23.4878460584
Mg 22.3740370000 14.7630357541 23.4878460584
Mg 22.3740370000 11.0722768156 26.0976067315
Mg 23.9721825000 13.8403460194 26.0976067315
Mg 23.9721825000 11.9949665502 28.7073674047
Mg 22.3740370000 14.7630357541 28.7073674047
Mg 22.3740370000 11.0722768156 31.3171280778
Mg 23.9721825000 13.8403460194 31.3171280778
Mg 23.9721825000 11.9949665502 33.9268887510
Mg 22.3740370000 14.7630357541 33.9268887510
Mg 22.3740370000 11.0722768156 36.5366494241
Mg 23.9721825000 13.8403460194 36.5366494241
Mg 23.9721825000 11.9949665502 39.1464100973
Mg 22.3740370000 14.7630357541 39.1464100973
Mg 22.3740370000 16.6084152233 0.0000000000
Mg 23.9721825000 19.3764844272 0.0000000000
Mg 23.9721825000 17.5311049580 2.6097606732
Mg 22.3740370000 20.2991741618 2.6097606732
Mg 22.3740370000 16.6084152233 5.2195213463
Mg 23.9721825000 19.3764844272 5.2195213463
Mg 23.9721825000 17.5311049580 7.8292820195
Mg 22.3740370000 20.2991741618 7.8292820195
Mg 22.3740370000 16.6084152233 10.4390426926
Mg 23.9721825000 19.3764844272 10.4390426926
Mg 23.9721825000 17.5311049580 13.0488033658
Mg 22.3740370000 20.2991741618 13.0488033658
Mg 22.3740370000 16.6084152233 15.6585640389
Mg 23.9721825000 19.3764844272 15.6585640389
Mg 23.9721825000 17.5311049580 18.2683247121
Mg 22.3740370000 20.2991741618 18.2683247121
Mg 22.3740370000 16.6084152233 20.8780853852
Mg 23.9721825000 19.3764844272 20.8780853852
Mg 23.9721825000 17.5311049580 23.4878460584
Mg 22.3740370000 20.2991741618 23.4878460584
Mg 22.3740370000 16.6084152233 26.0976067315
Mg 23.9721825000 19.3764844272 26.0976067315
Mg 23.9721825000 17.5311049580 28.7073674047
Mg 22.3740370000 20.2991741618 28.7073674047
Mg 22.3740370000 16.6084152233 31.3171280778
Mg 23.9721825000 19.3764844272 31.3171280778
Mg 23.9721825000 17.5311049580 33.9268887510
Mg 22.3740370000 20.2991741618 33.9268887510
Mg 22.3740370000 16.6084152233 36.5366494241
Mg 23.9721825000 19.3764844272 36.5366494241
Mg 23.9721825000 17.5311049580 39.1464100973
Mg 22.3740370000 20.2991741618 39.1464100973
Mg 22.3740370000 22.1445536311 0.0000000000
Mg 23.9721825000 24.9126228350 0.0000000000
Mg 23.9721825000 23.0672433657 2.6097606732
Mg 22.3740370000 25.8353125696 2.6097606732
Mg 22.3740370000 22.1445536311 5.2195213463
Mg 23.9721825000 24.9126228350 5.2195213463
Mg 23.9721825000 23.0672433657 7.8292820195
Mg 22.3740370000 25.8353125696 7.8292820195
Mg 22.3740370000 22.1445536311 10.4390426926
Mg 23.9721825000 24.9126228350 10.4390426926
Mg 23.9721825000 23.0672433657 13.0488033658
Mg 22.3740370000 25.8353125696 13.0488033658
Mg 22.3740370000 22.1445536311 15.6585640389
Mg 23.9721825000 24.9126228350 15.6585640389
Mg 23.9721825000 23.0672433657 18.2683247121
Mg 22.3740370000 25.8353125696 18.2683247121
Mg 22.3740370000 22.1445536311 20.8780853852
Mg 23.9721825000 24.9126228350 20.8780853852
Mg 23.9721825000 23.0672433657 23.4878460584
Mg 22.3740370000 25.8353125696 23.4878460584
Mg 22.3740370000 22.1445536311 26.0976067315
Mg 23.9721825000 24.9126228350 26.0976067315
Mg 23.9721825000 23.0672433657 28.7073674047
Mg 22.3740370000 25.8353125696 28.7073674047
Mg 22.3740370000 22.1445536311 31.3171280778
Mg 23.9721825000 24.9126228350 31.3171280778
Mg 23.9721825000 23.0672433657 33.9268887510
Mg 22.3740370000 25.8353125696 33.9268887510
Mg 22.3740370000 22.1445536311 36.5366494241
Mg 23.9721825000 24.9126228350 36.5366494241
Mg 23.9721825000 23.0672433657 39.1464100973
Mg 22.3740370000 25.8353125696 39.1464100973
Mg 22.3740370000 27.6806920389 0.0000000000
Mg 23.9721825000 30.4487612428 0.0000000000
Mg 23.9721825000 28.6033817735 2.6097606732
Mg 22.3740370000 31.3714509774 2.6097606732
Mg 22.3740370000 27.6806920389 5.2195213463
Mg 23.9721825000 30.4487612428 5.2195213463
Mg 23.9721825000 28.6033817735 7.8292820195
Mg 22.3740370000 31.3714509774 7.8292820195
Mg 22.3740370000 27.6806920389 10.4390426926
Mg 23.9721825000 30.4487612428 10.4390426926
Mg 23.9721825000 28.6033817735 13.0488033658
Mg 22.3740370000 31.3714509774 13.0488033658
Mg 22.3740370000 27.6806920389 15.6585640389
Mg 23.9721825000 30.4487612428 15.6585640389
Mg 23.9721825000 28.6033817735 18.2683247121
Mg 22.3740370000 31.3714509774 18.2683247121
Mg 22.3740370000 27.6806920389 20.8780853852
Mg 23.9721825000 30.4487612428 20.8780853852
Mg 23.9721825000 28.6033817735 23.4878460584
Mg 22.3740370000 31.3714509774 23.4878460584
Mg 22.3740370000 27.6806920389 26.0976067315
Mg 23.9721825000 30.4487612428 26.0976067315
Mg 23.9721825000 28.6033817735 28.7073674047
Mg 22.3740370000 31.3714509774 28.7073674047
Mg 22.3740370000 27.6806920389 31.3171280778
Mg 23.9721825000 30.4487612428 31.3171280778
Mg 23.9721825000 28.6033817735 33.9268887510
Mg 22.3740370000 31.3714509774 33.9268887510
Mg 22.3740370000 27.6806920389 36.5366494241
Mg 23.9721825000 30.4487612428 36.5366494241
Mg 23.9721825000 28.6033817735 39.1464100973
Mg 22.3740370000 31.3714509774 39.1464100973
Mg 22.3740370000 33.2168304467 0.0000000000
Mg 23.9721825000 35.9848996505 0.0000000000
Mg 23.9721825000 34.1395201813 2.6097606732
Mg 22.3740370000 36.9075893852 2.6097606732
Mg 22.3740370000 33.2168304467 5.2195213463
Mg 23.9721825000 35.9848996505 5.2195213463
Mg 23.9721825000 34.1395201813 7.8292820195
Mg 22.3740370000 36.9075893852 7.8292820195
Mg 22.3740370000 33.2168304467 10.4390426926
Mg 23.9721825000 35.9848996505 10.4390426926
Mg 23.9721825000 34.1395201813 13.0488033658
Mg 22.3740370000 36.9075893852 13.0488033658
Mg 22.3740370000 33.2168304467 15.6585640389
Mg 23.9721825000 35.9848996505 15.6585640389
Mg 23.9721825000 34.1395201813 18.2683247121
Mg 22.3740370000 36.9075893852 18.2683247121
Mg 22.3740370000 33.2168304467 20.8780853852
Mg 23.9721825000 35.9848996505 20.8780853852
Mg 23.9721825000 34.1395201813 23.4878460584
Mg 22.3740370000 36.9075893852 23.4878460584
Mg 22.3740370000 33.2168304467 26.0976067315
Mg 23.9721825000 35.9848996505 26.0976067315
Mg 23.9721825000 34.1395201813 28.7073674047
Mg 22.3740370000 36.9075893852 28.7073674047
Mg 22.3740370000 33.2168304467 31.3171280778
Mg 23.9721825000 35.9848996505 31.3171280778
Mg 23.9721825000 34.1395201813 33.9268887510
Mg 22.3740370000 36.9075893852 33.9268887510
Mg 22.3740370000 33.2168304467 36.5366494241
Mg 23.9721825000 35.9848996505 36.5366494241
Mg 23.9721825000 34.1395201813 39.1464100973
Mg 22.3740370000 36.9075893852 39.1464100973
Mg 22.3740370000 38.7529688544 0.0000000000
Mg 23.9721825000 41.5210380583 0.0000000000
Mg 23.9721825000 39.6756585891 2.6097606732
Mg 22.3740370000 42.4437277929 2.6097606732
Mg 22.3740370000 38.7529688544 5.2195213463
Mg 23.9721825000 41.5210380583 5.2195213463
Mg 23.9721825000 39.6756585891 7.8292820195
Mg 22.3740370000 42.4437277929 7.8292820195
Mg 22.3740370000 38.7529688544 10.4390426926
Mg 23.9721825000 41.5210380583 10.4390426926
Mg 23.9721825000 39.6756585891 13.0488033658
Mg 22.3740370000 42.4437277929 13.0488033658
Mg 22.3740370000 38.7529688544 15.6585640389
Mg 23.9721825000 41.5210380583 15.6585640389
Mg 23.9721825000 39.6756585891 18.2683247121
Mg 22.3740370000 42.4437277929 18.2683247121
Mg 22.3740370000 38.7529688544 20.8780853852
Mg 23.9721825000 41.5210380583 20.8780853852
Mg 23.9721825000 39.6756585891 23.4878460584
Mg 22.3740370000 42.4437277929 23.4878460584
Mg 22.3740370000 38.7529688544 26.0976067315
Mg 23.9721825000 41.5210380583 26.0976067315
Mg 23.9721825000 39.6756585891 28.7073674047
Mg 22.3740370000 42.4437277929 28.7073674047
Mg 22.3740370000 38.7529688544 31.3171280778
Mg 23.9721825000 41.5210380583 31.3171280778
Mg 23.9721825000 39.6756585891 33.9268887510
Mg 22.3740370000 42.4437277929 33.9268887510
Mg 22.3740370000 38.7529688544 36.5366494241
Mg 23.9721825000 41.5210380583 36.5366494241
Mg 23.9721825000 39.6756585891 39.1464100973
Mg 22.3740370000 42.4437277929 39.1464100973
