250
Lattice="-10.109576500 0.000000000 10.109576500 0.000000000 10.109576500 10.109576500 -10.109576500 10.109576500 0.000000000" Properties=species:S:1:pos:R:3 pbc="T T T"
Li -20.11007 10.10293 10.13681
Li -12.08055 2.08061 10.13069
Li -13.98029 4.16356 10.12247
Li -16.29473 16.28495 20.10959
Li -18.28447 18.27487 20.09981
Li -10.07986 1.9873 11.99348
Li -12.10146 4.18349 12.10616
Li -4.0974 6.08033 2.06117
Li -16.20835 8.149710000000001 11.9663
Li -18.18624 10.14691 12.06764
Li -10.02946 3.94105 13.84531
Li -12.07353 6.26772 14.13058
Li -14.23067 8.17736 13.88059
Li -6.05399 10.02514 3.98616
Li -7.96882 11.95923 4.03078
Li -10.06507 6.03791 15.88989
Li -11.96185 8.104039999999999 15.9778
Li -3.96282 9.944100000000001 6.09405
Li -16.14435 11.93246 16.00337
Li -8.115259999999999 13.85328 6.20762
Li -10.07397 18.03684 8.03314
Li -11.9439 9.95668 18.15665
Li -14.27251 12.19769 18.06676
Li -6.10226 14.09925 8.164350000000001
Li -8.215780000000001 16.08033 8.18642
Li -2.1471 10.13579 12.14903
Li -4.09827 2.04395 2.06426
Li -6.07618 14.11041 12.15548
Li -7.9519 5.95085 2.20045
Li -10.10149 18.11418 12.17181
Li -2.23484 2.04915 4.14496
Li -4.03855 3.92993 4.02578
Li -6.12831 6.06847 3.92231
Li -7.95988 8.00695 4.13371
Li -10.07805 10.14754 4.07005
Li -2.17907 4.00076 5.91326
Li -4.31418 6.07761 6.06892
Li -6.14893 8.3512 6.08403
Li -8.00107 10.21784 6.22133
Li -10.17146 12.16125 5.85942
Li -2.08301 6.13524 8.055949999999999
Li -3.91148 7.94245 8.161820000000001
Li -6.12585 10.09995 8.073639999999999
Li -7.94875 12.08863 8.27291
Li -10.24574 14.0486 8.01111
Li -11.93629 18.19065 10.25632
Li -3.99457 10.17956 9.99273
Li -6.19083 12.22314 10.01339
Li -8.104340000000001 14.16379 10.16476
Li -10.08562 16.06601 10.09871
Li -4.00926 0.08536000000000001 3.97476
Li -6.01579 11.97211 14.22806
Li -8.328900000000001 14.21183 14.30538
Li -10.08398 6.03381 4.14053
Li -12.17368 8.352320000000001 4.12096
Li -14.16851 12.10444 6.0663
Li -6.10286 3.99187 6.27487
Li -8.11819 6.18174 6.07625
Li -9.96194 8.23696 6.25067
Li -12.11277 10.18154 6.10191
Li -4.15065 4.04318 8.12349
Li -6.0288 6.13263 8.12102
Li -8.121029999999999 8.088380000000001 8.3468
Li -10.22283 10.1877 8.1348
Li -12.05336 11.97826 8.19247
Li -14.01573 16.23418 10.03148
Li -5.8516 7.85393 10.2204
Li -8.130330000000001 10.15759 10.08894
Li -10.03012 12.06506 10.26336
Li -12.06352 13.92476 10.21699
Li -14.19329 17.95745 11.97988
Li -6.06428 10.2301 12.15119
Li -7.95897 12.06614 12.16194
Li -9.941750000000001 13.97044 12.12355
Li -12.20806 16.25585 12.06336
Li -15.97433 10.13054 6.0788
Li -8.0905 1.97415 6.17397
Li -10.30528 14.33135 16.19182
Li -12.16222 16.12891 16.16706
Li -13.97093 7.98894 6.01103
Li -16.07249 11.93416 8.03994
Li -8.071070000000001 4.05089 8.30137
Li -10.18176 6.08566 8.12594
Li -12.08691 8.156879999999999 8.105119999999999
Li -14.27947 10.12132 8.18924
Li -6.04146 4.18933 10.21187
Li -8.13317 6.14971 10.31843
Li -10.2866 8.25872 10.0406
Li -12.04674 10.09465 10.10814
Li -14.18404 12.02289 9.974209999999999
Li -15.91388 16.08798 12.11645
Li -8.031639999999999 7.88125 12.01289
Li -10.05364 10.08701 12.31729
Li -12.13425 12.02729 12.2092
Li -14.11158 14.11718 11.95765
Li -6.09879 8.0502 14.12516
Li -8.03342 10.28856 14.29622
Li -10.17468 12.14311 14.07129
Li -12.38661 14.06391 14.04726
Li -14.04126 16.18088 13.99763
Li -18.40961 20.07441 18.31993
Li -10.14009 2.15926 8.005879999999999
Li -12.27612 4.08344 8.20438
Li -14.04111 6.11912 8.22373
Li -16.14561 8.07 8.10773
Li -8.024900000000001 2.02616 9.99478
Li -10.16663 4.09732 10.17772
Li -11.98976 6.23552 10.17932
Li -14.31123 8.06062 9.942310000000001
Li -16.19949 10.26209 10.28537
Li -18.20954 14.05841 12.17831
Li -10.07688 6.02128 12.04231
Li -12.10776 8.168749999999999 12.0803
Li -14.10291 10.07698 12.20761
Li -16.28166 12.25424 12.0931
Li -8.196289999999999 6.00898 14.15991
Li -9.97573 8.2501 14.03315
Li -12.01596 10.38091 13.89884
Li -14.27797 12.15618 14.09225
Li -16.33763 14.08114 14.20809
Li -8.07563 8.279389999999999 16.20617
Li -10.12979 10.08966 16.0776
Li -12.16381 12.12027 16.15032
Li -14.21593 14.19259 16.07338
Li -16.20785 16.16918 16.21134
H -1.87668 2.08932 2.09302
H -4.25102 4.01213 1.93661
H -6.09558 6.12524 1.91559
H -8.29876 7.98936 2.02186
H -10.254 10.13485 2.01765
H -2.40304 4.10262 3.97683
H -4.2722 5.99787 3.92501
H -5.95889 7.99026 3.80969
H -7.97629 10.07166 4.09118
H -9.99966 11.96862 3.91761
H -1.90694 6.31266 6.20463
H -4.18149 7.96445 5.93018
H -6.17751 10.19498 6.08699
H -8.05946 12.07047 6.05891
H -10.17647 14.195 5.94635
H -1.83706 8.33958 8.17942
H -4.03943 9.896000000000001 8.082520000000001
H -6.15698 12.16423 8.317460000000001
H -7.94547 13.90009 8.067909999999999
H -10.23153 16.1438 7.95515
H -1.86796 10.02631 10.16066
H -3.88826 12.42909 10.27271
H -6.30921 14.41366 10.09893
H -8.09876 16.07715 10.10464
H -10.1391 17.88436 10.02723
H -4.39539 1.85077 4.05058
H -6.2291 3.95006 3.86654
H -8.006790000000001 5.98343 4.05652
H -10.12416 8.06682 4.38115
H -11.98922 9.96363 3.96743
H -4.22877 4.13736 5.94189
H -5.95295 6.0793 6.27411
H -8.178330000000001 8.16709 6.22316
H -9.85225 10.18163 6.09242
H -11.99541 12.05285 5.68705
H -3.83222 6.0666 8.17662
H -6.05651 8.1557 8.2425
H -8.03581 10.1834 8.01149
H -10.21626 12.0706 8.0642
H -12.30798 14.35654 7.93262
H -3.94909 7.94811 10.18066
H -6.03381 10.28195 9.973560000000001
H -8.028119999999999 12.17533 10.25988
H -10.11939 14.02418 10.15174
H -12.05179 16.11987 9.984310000000001
H -4.06599 9.98626 12.03351
H -5.79806 12.06289 12.3879
H -8.014379999999999 14.10796 12.23871
H -10.13496 16.24992 12.18707
H -12.09386 18.41734 12.04995
H -6.07302 1.9656 5.79679
H -8.426019999999999 4.3054 6.23709
H -10.14878 6.04667 6.22704
H -12.1529 8.21631 6.28572
H -14.16506 10.35806 6.03464
H -6.00168 3.86121 8.24029
H -8.049480000000001 6.28862 8.08118
H -10.27137 8.21528 8.21766
H -12.12431 10.08248 8.380739999999999
H -14.06606 12.66815 8.149430000000001
H -6.12419 6.21505 10.10042
H -8.08006 7.84023 9.941879999999999
H -10.23603 10.19809 10.28412
H -12.28051 11.87556 10.10028
H -14.25979 14.17598 10.16804
H -6.07918 8.101470000000001 12.14007
H -8.501670000000001 10.09642 11.89634
H -9.995039999999999 12.09312 12.13951
H -11.95274 14.30642 12.14718
H -14.16698 16.09706 11.86949
H -5.89088 10.1622 14.05293
H -7.83732 11.94925 14.20531
H -9.98907 13.95203 14.0655
H -12.16958 16.2603 14.36425
H -14.24776 18.26326 14.26894
H -8.15879 2.28761 7.97997
H -10.16571 3.94165 8.50773
H -11.97943 6.12581 8.07216
H -14.34794 8.32325 7.95549
H -16.32766 10.31373 8.202540000000001
H -8.0976 4.05191 10.3572
H -10.20494 6.00051 10.06706
H -11.92928 8.36713 9.98254
H -14.19649 9.76567 10.17187
H -16.05993 12.41068 9.922000000000001
H -7.90532 5.82164 12.1735
H -10.2876 8.293839999999999 12.09878
H -12.21855 10.24325 11.94388
H -14.07618 12.18476 12.21037
H -16.17892 14.01517 12.18187
H -7.95555 7.95625 14.20159
H -10.03529 10.22159 14.45349
H -12.29465 12.06526 14.23677
H -14.25856 14.31933 14.30379
H -16.12196 15.8958 14.23577
H -7.79429 10.00151 16.12091
H -10.10216 12.18256 16.1692
H -12.36944 14.25787 16.37316
H -14.06179 16.3651 16.08498
H -16.35191 18.23695 16.26295
H -10.34477 1.83326 10.24938
H -11.94274 4.20246 9.87894
H -14.25422 6.04445 10.0639
H -16.30969 8.24155 10.09803
H -18.15343 10.10579 10.08917
H -10.21587 3.905 12.02508
H -11.99432 5.90433 12.19004
H -14.0823 8.108599999999999 11.93284
H -16.0194 10.09673 12.26427
H -18.36497 11.9157 12.08876
H -10.07605 6.06375 14.06924
H -12.03066 8.18854 14.10955
H -14.26323 10.29209 14.22394
H -16.30535 11.9951 14.20035
H -17.8364 14.16604 13.87086
H -10.0225 8.207050000000001 15.83881
H -12.05907 9.86539 15.88996
H -14.49467 12.2601 16.02633
H -16.04006 14.26514 16.41132
H -18.20225 15.86916 16.08586
H -9.99715 10.052 18.49632
H -11.9831 12.17182 18.24581
H -13.82302 14.34627 18.07476
H -16.27835 16.12525 18.25721
H -18.26154 18.11394 18.29319
