104
Lattice="11.460652060 0.447192050 0.553598960 -0.364357070 9.848879610 0.320565720 -0.214540070 0.279229200 11.335048610" Properties=species:S:1:pos:R:3 pbc="T T T"
C 7.20521 3.65693 3.82355
C 1.58585 1.6693 3.42967
C 3.49316 6.8587 3.72306
C 9.248749999999999 8.482200000000001 4.0639
C 9.37274 2.01943 2.93021
C 3.62838 3.39565 2.7994
C 1.40629 8.428800000000001 2.8259
C 7.27984 6.79727 2.96022
C 7.13899 2.93422 2.63691
C 1.67888 2.16197 2.15718
C 2.26707 6.82861 4.42618
C 9.62846 7.23786 3.40209
C 9.36403 2.62845 4.17563
C 3.58026 2.85019 4.08214
C 2.61296 8.49202 2.18451
C 6.89567 8.01003 3.51769
C 8.187749999999999 2.20603 2.17179
C 2.69528 3.14554 1.85099
C 1.26344 7.57248 3.9649
C 8.62167 6.42075 2.96578
C 8.350020000000001 3.49331 4.58254
C 2.59518 1.91764 4.36352
C 3.66952 7.72083 2.64872
C 7.90543 8.760619999999999 4.18294
C 7.34172 3.82009 9.51389
C 1.77632 1.96957 8.863519999999999
C 3.59674 6.91486 9.24259
C 9.263680000000001 8.85711 9.66483
C 9.53387 2.19272 8.72082
C 3.83816 3.80583 8.238189999999999
C 1.45318 8.515980000000001 8.304819999999999
C 7.30584 7.11995 8.71125
C 8.6249 3.98383 10.10215
C 1.61639 2.84758 7.73857
C 3.77108 8.13589 8.511710000000001
C 9.596679999999999 7.87828 8.74611
C 8.262219999999999 1.97701 8.144539999999999
C 4.04344 2.90276 9.28492
C 1.17827 7.32889 9.041840000000001
C 7.0258 7.94139 9.84652
C 9.686210000000001 3.16882 9.673550000000001
C 2.61042 3.76595 7.44942
C 2.71563 8.95398 8.043839999999999
C 8.56864 7.01754 8.223280000000001
C 7.1649 2.79354 8.480029999999999
C 2.96925 2.03627 9.63678
C 2.2774 6.5481 9.49668
C 7.95859 8.889860000000001 10.22356
O 6.1668 4.37561 4.341
O 0.5616 0.84609 3.85134
O 4.51969 6.00936 4.17138
O 10.11531 9.346120000000001 4.60116
O 10.42631 1.16471 2.45236
O 4.54973 4.34115 2.37833
O 0.34631 9.125769999999999 2.28489
O 6.309 5.90745 2.38101
O 6.31643 4.66541 9.855639999999999
O 0.8456399999999999 0.98998 9.27411
O 4.59581 6.16345 9.751580000000001
O 10.23731 9.681749999999999 10.16296
O 10.54343 1.53411 8.062580000000001
O 4.78792 4.68182 7.80782
O 0.43715 9.22132 7.69216
O 6.38355 6.3502 8.126950000000001
H 8.470370000000001 4.019 5.56952
H 2.50365 1.5814 5.42256
H 4.62313 7.72499 2.09496
H 7.56734 9.68092 4.68064
H 8.18709 1.80825 1.18592
H 2.6574 3.65326 0.8833
H 0.26999 7.473 4.41791
H 8.842449999999999 5.33609 2.67691
H 10.20119 2.42329 4.82672
H 4.3733 3.09236 4.81795
H 2.8555 9.074170000000001 1.26305
H 5.8909 8.443199999999999 3.49728
H 6.28094 2.98551 1.98271
H 0.87921 1.92226 1.42945
H 1.96665 6.13239 5.1686
H 10.66778 6.92721 3.42394
H 6.25006 2.76339 7.91029
H 2.98179 1.41915 10.56693
H 2.06679 5.54371 9.99757
H 7.71823 9.725619999999999 10.88362
H 10.69484 3.32922 10.00283
H 2.62355 4.37672 6.54466
H 2.82989 9.871700000000001 7.49095
H 8.74334 6.25868 7.42423
H 8.05452 1.16962 7.42411
H 4.94453 3.00184 9.942690000000001
H 0.20932 6.9651 9.279310000000001
H 6.08523 7.93843 10.34095
H 8.813000000000001 4.84454 10.66887
H 0.69479 2.66523 7.17533
H 4.76052 8.36116 8.16522
H 10.63723 7.85398 8.38997
B 5.41981 5.18008 3.31367
B 10.90961 10.32287 3.74791
B 5.49911 5.47382 8.88397
B -0.04577 0.25044 8.364599999999999
Na 10.85505 10.35451 12.1299
Na 5.33876 5.26718 0.4546
Na 10.66534 10.1775 6.51269
Na 5.55851 6.17946 6.17766
