2048
Lattice="28.9200000000 0 0 0 28.9200000000 0 0 0 28.9200000000" Properties=species:S:1:pos:R:3 pbc="T T T" case=dai_cu_fcc
Cu 0.0000000000 0.0000000000 0.0000000000
Cu 0.0000000000 1.8075000000 1.8075000000
Cu 1.8075000000 0.0000000000 1.8075000000
Cu 1.8075000000 1.8075000000 0.0000000000
Cu 0.0000000000 0.0000000000 3.6150000000
Cu 0.0000000000 1.8075000000 5.4225000000
Cu 1.8075000000 0.0000000000 5.4225000000
Cu 1.8075000000 1.8075000000 3.6150000000
Cu 0.0000000000 0.0000000000 7.2300000000
Cu 0.0000000000 1.8075000000 9.0375000000
Cu 1.8075000000 0.0000000000 9.0375000000
Cu 1.8075000000 1.8075000000 7.2300000000
Cu 0.0000000000 0.0000000000 10.8450000000
Cu 0.0000000000 1.8075000000 12.6525000000
Cu 1.8075000000 0.0000000000 12.6525000000
Cu 1.8075000000 1.8075000000 10.8450000000
Cu 0.0000000000 0.0000000000 14.4600000000
Cu 0.0000000000 1.8075000000 16.2675000000
Cu 1.8075000000 0.0000000000 16.2675000000
Cu 1.8075000000 1.8075000000 14.4600000000
Cu 0.0000000000 0.0000000000 18.0750000000
Cu 0.0000000000 1.8075000000 19.8825000000
Cu 1.8075000000 0.0000000000 19.8825000000
Cu 1.8075000000 1.8075000000 18.0750000000
Cu 0.0000000000 0.0000000000 21.6900000000
Cu 0.0000000000 1.8075000000 23.4975000000
Cu 1.8075000000 0.0000000000 23.4975000000
Cu 1.8075000000 1.8075000000 21.6900000000
Cu 0.0000000000 0.0000000000 25.3050000000
Cu 0.0000000000 1.8075000000 27.1125000000
Cu 1.8075000000 0.0000000000 27.1125000000
Cu 1.8075000000 1.8075000000 25.3050000000
Cu 0.0000000000 3.6150000000 0.0000000000
Cu 0.0000000000 5.4225000000 1.8075000000
Cu 1.8075000000 3.6150000000 1.8075000000
Cu 1.8075000000 5.4225000000 0.0000000000
Cu 0.0000000000 3.6150000000 3.6150000000
Cu 0.0000000000 5.4225000000 5.4225000000
Cu 1.8075000000 3.6150000000 5.4225000000
Cu 1.8075000000 5.4225000000 3.6150000000
Cu 0.0000000000 3.6150000000 7.2300000000
Cu 0.0000000000 5.4225000000 9.0375000000
Cu 1.8075000000 3.6150000000 9.0375000000
Cu 1.8075000000 5.4225000000 7.2300000000
Cu 0.0000000000 3.6150000000 10.8450000000
Cu 0.0000000000 5.4225000000 12.6525000000
Cu 1.8075000000 3.6150000000 12.6525000000
Cu 1.8075000000 5.4225000000 10.8450000000
Cu 0.0000000000 3.6150000000 14.4600000000
Cu 0.0000000000 5.4225000000 16.2675000000
Cu 1.8075000000 3.6150000000 16.2675000000
Cu 1.8075000000 5.4225000000 14.4600000000
Cu 0.0000000000 3.6150000000 18.0750000000
Cu 0.0000000000 5.4225000000 19.8825000000
Cu 1.8075000000 3.6150000000 19.8825000000
Cu 1.8075000000 5.4225000000 18.0750000000
Cu 0.0000000000 3.6150000000 21.6900000000
Cu 0.0000000000 5.4225000000 23.4975000000
Cu 1.8075000000 3.6150000000 23.4975000000
Cu 1.8075000000 5.4225000000 21.6900000000
Cu 0.0000000000 3.6150000000 25.3050000000
Cu 0.0000000000 5.4225000000 27.1125000000
Cu 1.8075000000 3.6150000000 27.1125000000
Cu 1.8075000000 5.4225000000 25.3050000000
Cu 0.0000000000 7.2300000000 0.0000000000
Cu 0.0000000000 9.0375000000 1.8075000000
Cu 1.8075000000 7.2300000000 1.8075000000
Cu 1.8075000000 9.0375000000 0.0000000000
Cu 0.0000000000 7.2300000000 3.6150000000
Cu 0.0000000000 9.0375000000 5.4225000000
Cu 1.8075000000 7.2300000000 5.4225000000
Cu 1.8075000000 9.0375000000 3.6150000000
Cu 0.0000000000 7.2300000000 7.2300000000
Cu 0.0000000000 9.0375000000 9.0375000000
Cu 1.8075000000 7.2300000000 9.0375000000
Cu 1.8075000000 9.0375000000 7.2300000000
Cu 0.0000000000 7.2300000000 10.8450000000
Cu 0.0000000000 9.0375000000 12.6525000000
Cu 1.8075000000 7.2300000000 12.6525000000
Cu 1.8075000000 9.0375000000 10.8450000000
Cu 0.0000000000 7.2300000000 14.4600000000
Cu 0.0000000000 9.0375000000 16.2675000000
Cu 1.8075000000 7.2300000000 16.2675000000
Cu 1.8075000000 9.0375000000 14.4600000000
Cu 0.0000000000 7.2300000000 18.0750000000
Cu 0.0000000000 9.0375000000 19.8825000000
Cu 1.8075000000 7.2300000000 19.8825000000
Cu 1.8075000000 9.0375000000 18.0750000000
Cu 0.0000000000 7.2300000000 21.6900000000
Cu 0.0000000000 9.0375000000 23.4975000000
Cu 1.8075000000 7.2300000000 23.4975000000
Cu 1.8075000000 9.0375000000 21.6900000000
Cu 0.0000000000 7.2300000000 25.3050000000
Cu 0.0000000000 9.0375000000 27.1125000000
Cu 1.8075000000 7.2300000000 27.1125000000
Cu 1.8075000000 9.0375000000 25.3050000000
Cu 0.0000000000 10.8450000000 0.0000000000
Cu 0.0000000000 12.6525000000 1.8075000000
Cu 1.8075000000 10.8450000000 1.8075000000
Cu 1.8075000000 12.6525000000 0.0000000000
Cu 0.0000000000 10.8450000000 3.6150000000
Cu 0.0000000000 12.6525000000 5.4225000000
Cu 1.8075000000 10.8450000000 5.4225000000
Cu 1.8075000000 12.6525000000 3.6150000000
Cu 0.0000000000 10.8450000000 7.2300000000
Cu 0.0000000000 12.6525000000 9.0375000000
Cu 1.8075000000 10.8450000000 9.0375000000
Cu 1.8075000000 12.6525000000 7.2300000000
Cu 0.0000000000 10.8450000000 10.8450000000
Cu 0.0000000000 12.6525000000 12.6525000000
Cu 1.8075000000 10.8450000000 12.6525000000
Cu 1.8075000000 12.6525000000 10.8450000000
Cu 0.0000000000 10.8450000000 14.4600000000
Cu 0.0000000000 12.6525000000 16.2675000000
Cu 1.8075000000 10.8450000000 16.2675000000
Cu 1.8075000000 12.6525000000 14.4600000000
Cu 0.0000000000 10.8450000000 18.0750000000
Cu 0.0000000000 12.6525000000 19.8825000000
Cu 1.8075000000 10.8450000000 19.8825000000
Cu 1.8075000000 12.6525000000 18.0750000000
Cu 0.0000000000 10.8450000000 21.6900000000
Cu 0.0000000000 12.6525000000 23.4975000000
Cu 1.8075000000 10.8450000000 23.4975000000
Cu 1.8075000000 12.6525000000 21.6900000000
Cu 0.0000000000 10.8450000000 25.3050000000
Cu 0.0000000000 12.6525000000 27.1125000000
Cu 1.8075000000 10.8450000000 27.1125000000
Cu 1.8075000000 12.6525000000 25.3050000000
Cu 0.0000000000 14.4600000000 0.0000000000
Cu 0.0000000000 16.2675000000 1.8075000000
Cu 1.8075000000 14.4600000000 1.8075000000
Cu 1.8075000000 16.2675000000 0.0000000000
Cu 0.0000000000 14.4600000000 3.6150000000
Cu 0.0000000000 16.2675000000 5.4225000000
Cu 1.8075000000 14.4600000000 5.4225000000
Cu 1.8075000000 16.2675000000 3.6150000000
Cu 0.0000000000 14.4600000000 7.2300000000
Cu 0.0000000000 16.2675000000 9.0375000000
Cu 1.8075000000 14.4600000000 9.0375000000
Cu 1.8075000000 16.2675000000 7.2300000000
Cu 0.0000000000 14.4600000000 10.8450000000
Cu 0.0000000000 16.2675000000 12.6525000000
Cu 1.8075000000 14.4600000000 12.6525000000
Cu 1.8075000000 16.2675000000 10.8450000000
Cu 0.0000000000 14.4600000000 14.4600000000
Cu 0.0000000000 16.2675000000 16.2675000000
Cu 1.8075000000 14.4600000000 16.2675000000
Cu 1.8075000000 16.2675000000 14.4600000000
Cu 0.0000000000 14.4600000000 18.0750000000
Cu 0.0000000000 16.2675000000 19.8825000000
Cu 1.8075000000 14.4600000000 19.8825000000
Cu 1.8075000000 16.2675000000 18.0750000000
Cu 0.0000000000 14.4600000000 21.6900000000
Cu 0.0000000000 16.2675000000 23.4975000000
Cu 1.8075000000 14.4600000000 23.4975000000
Cu 1.8075000000 16.2675000000 21.6900000000
Cu 0.0000000000 14.4600000000 25.3050000000
Cu 0.0000000000 16.2675000000 27.1125000000
Cu 1.8075000000 14.4600000000 27.1125000000
Cu 1.8075000000 16.2675000000 25.3050000000
Cu 0.0000000000 18.0750000000 0.0000000000
Cu 0.0000000000 19.8825000000 1.8075000000
Cu 1.8075000000 18.0750000000 1.8075000000
Cu 1.8075000000 19.8825000000 0.0000000000
Cu 0.0000000000 18.0750000000 3.6150000000
Cu 0.0000000000 19.8825000000 5.4225000000
Cu 1.8075000000 18.0750000000 5.4225000000
Cu 1.8075000000 19.8825000000 3.6150000000
Cu 0.0000000000 18.0750000000 7.2300000000
Cu 0.0000000000 19.8825000000 9.0375000000
Cu 1.8075000000 18.0750000000 9.0375000000
Cu 1.8075000000 19.8825000000 7.2300000000
Cu 0.0000000000 18.0750000000 10.8450000000
Cu 0.0000000000 19.8825000000 12.6525000000
Cu 1.8075000000 18.0750000000 12.6525000000
Cu 1.8075000000 19.8825000000 10.8450000000
Cu 0.0000000000 18.0750000000 14.4600000000
Cu 0.0000000000 19.8825000000 16.2675000000
Cu 1.8075000000 18.0750000000 16.2675000000
Cu 1.8075000000 19.8825000000 14.4600000000
Cu 0.0000000000 18.0750000000 18.0750000000
Cu 0.0000000000 19.8825000000 19.8825000000
Cu 1.8075000000 18.0750000000 19.8825000000
Cu 1.8075000000 19.8825000000 18.0750000000
Cu 0.0000000000 18.0750000000 21.6900000000
Cu 0.0000000000 19.8825000000 23.4975000000
Cu 1.8075000000 18.0750000000 23.4975000000
Cu 1.8075000000 19.8825000000 21.6900000000
Cu 0.0000000000 18.0750000000 25.3050000000
Cu 0.0000000000 19.8825000000 27.1125000000
Cu 1.8075000000 18.0750000000 27.1125000000
Cu 1.8075000000 19.8825000000 25.3050000000
Cu 0.0000000000 21.6900000000 0.0000000000
Cu 0.0000000000 23.4975000000 1.8075000000
Cu 1.8075000000 21.6900000000 1.8075000000
Cu 1.8075000000 23.4975000000 0.0000000000
Cu 0.0000000000 21.6900000000 3.6150000000
Cu 0.0000000000 23.4975000000 5.4225000000
Cu 1.8075000000 21.6900000000 5.4225000000
Cu 1.8075000000 23.4975000000 3.6150000000
Cu 0.0000000000 21.6900000000 7.2300000000
Cu 0.0000000000 23.4975000000 9.0375000000
Cu 1.8075000000 21.6900000000 9.0375000000
Cu 1.8075000000 23.4975000000 7.2300000000
Cu 0.0000000000 21.6900000000 10.8450000000
Cu 0.0000000000 23.4975000000 12.6525000000
Cu 1.8075000000 21.6900000000 12.6525000000
Cu 1.8075000000 23.4975000000 10.8450000000
Cu 0.0000000000 21.6900000000 14.4600000000
Cu 0.0000000000 23.4975000000 16.2675000000
Cu 1.8075000000 21.6900000000 16.2675000000
Cu 1.8075000000 23.4975000000 14.4600000000
Cu 0.0000000000 21.6900000000 18.0750000000
Cu 0.0000000000 23.4975000000 19.8825000000
Cu 1.8075000000 21.6900000000 19.8825000000
Cu 1.8075000000 23.4975000000 18.0750000000
Cu 0.0000000000 21.6900000000 21.6900000000
Cu 0.0000000000 23.4975000000 23.4975000000
Cu 1.8075000000 21.6900000000 23.4975000000
Cu 1.8075000000 23.4975000000 21.6900000000
Cu 0.0000000000 21.6900000000 25.3050000000
Cu 0.0000000000 23.4975000000 27.1125000000
Cu 1.8075000000 21.6900000000 27.1125000000
Cu 1.8075000000 23.4975000000 25.3050000000
Cu 0.0000000000 25.3050000000 0.0000000000
Cu 0.0000000000 27.1125000000 1.8075000000
Cu 1.8075000000 25.3050000000 1.8075000000
Cu 1.8075000000 27.1125000000 0.0000000000
Cu 0.0000000000 25.3050000000 3.6150000000
Cu 0.0000000000 27.1125000000 5.4225000000
Cu 1.8075000000 25.3050000000 5.4225000000
Cu 1.8075000000 27.1125000000 3.6150000000
Cu 0.0000000000 25.3050000000 7.2300000000
Cu 0.0000000000 27.1125000000 9.0375000000
Cu 1.8075000000 25.3050000000 9.0375000000
Cu 1.8075000000 27.1125000000 7.2300000000
Cu 0.0000000000 25.3050000000 10.8450000000
Cu 0.0000000000 27.1125000000 12.6525000000
Cu 1.8075000000 25.3050000000 12.6525000000
Cu 1.8075000000 27.1125000000 10.8450000000
Cu 0.0000000000 25.3050000000 14.4600000000
Cu 0.0000000000 27.1125000000 16.2675000000
Cu 1.8075000000 25.3050000000 16.2675000000
Cu 1.8075000000 27.1125000000 14.4600000000
Cu 0.0000000000 25.3050000000 18.0750000000
Cu 0.0000000000 27.1125000000 19.8825000000
Cu 1.8075000000 25.3050000000 19.8825000000
Cu 1.8075000000 27.1125000000 18.0750000000
Cu 0.0000000000 25.3050000000 21.6900000000
Cu 0.0000000000 27.1125000000 23.4975000000
Cu 1.8075000000 25.3050000000 23.4975000000
Cu 1.8075000000 27.1125000000 21.6900000000
Cu 0.0000000000 25.3050000000 25.3050000000
Cu 0.0000000000 27.1125000000 27.1125000000
Cu 1.8075000000 25.3050000000 27.1125000000
Cu 1.8075000000 27.1125000000 25.3050000000
Cu 3.6150000000 0.0000000000 0.0000000000
Cu 3.6150000000 1.8075000000 1.8075000000
Cu 5.4225000000 0.0000000000 1.8075000000
Cu 5.4225000000 1.8075000000 0.0000000000
Cu 3.6150000000 0.0000000000 3.6150000000
Cu 3.6150000000 1.8075000000 5.4225000000
Cu 5.4225000000 0.0000000000 5.4225000000
Cu 5.4225000000 1.8075000000 3.6150000000
Cu 3.6150000000 0.0000000000 7.2300000000
Cu 3.6150000000 1.8075000000 9.0375000000
Cu 5.4225000000 0.0000000000 9.0375000000
Cu 5.4225000000 1.8075000000 7.2300000000
Cu 3.6150000000 0.0000000000 10.8450000000
Cu 3.6150000000 1.8075000000 12.6525000000
Cu 5.4225000000 0.0000000000 12.6525000000
Cu 5.4225000000 1.8075000000 10.8450000000
Cu 3.6150000000 0.0000000000 14.4600000000
Cu 3.6150000000 1.8075000000 16.2675000000
Cu 5.4225000000 0.0000000000 16.2675000000
Cu 5.4225000000 1.8075000000 14.4600000000
Cu 3.6150000000 0.0000000000 18.0750000000
Cu 3.6150000000 1.8075000000 19.8825000000
Cu 5.4225000000 0.0000000000 19.8825000000
Cu 5.4225000000 1.8075000000 18.0750000000
Cu 3.6150000000 0.0000000000 21.6900000000
Cu 3.6150000000 1.8075000000 23.4975000000
Cu 5.4225000000 0.0000000000 23.4975000000
Cu 5.4225000000 1.8075000000 21.6900000000
Cu 3.6150000000 0.0000000000 25.3050000000
Cu 3.6150000000 1.8075000000 27.1125000000
Cu 5.4225000000 0.0000000000 27.1125000000
Cu 5.4225000000 1.8075000000 25.3050000000
Cu 3.6150000000 3.6150000000 0.0000000000
Cu 3.6150000000 5.4225000000 1.8075000000
Cu 5.4225000000 3.6150000000 1.8075000000
Cu 5.4225000000 5.4225000000 0.0000000000
Cu 3.6150000000 3.6150000000 3.6150000000
Cu 3.6150000000 5.4225000000 5.4225000000
Cu 5.4225000000 3.6150000000 5.4225000000
Cu 5.4225000000 5.4225000000 3.6150000000
Cu 3.6150000000 3.6150000000 7.2300000000
Cu 3.6150000000 5.4225000000 9.0375000000
Cu 5.4225000000 3.6150000000 9.0375000000
Cu 5.4225000000 5.4225000000 7.2300000000
Cu 3.6150000000 3.6150000000 10.8450000000
Cu 3.6150000000 5.4225000000 12.6525000000
Cu 5.4225000000 3.6150000000 12.6525000000
Cu 5.4225000000 5.4225000000 10.8450000000
Cu 3.6150000000 3.6150000000 14.4600000000
Cu 3.6150000000 5.4225000000 16.2675000000
Cu 5.4225000000 3.6150000000 16.2675000000
Cu 5.4225000000 5.4225000000 14.4600000000
Cu 3.6150000000 3.6150000000 18.0750000000
Cu 3.6150000000 5.4225000000 19.8825000000
Cu 5.4225000000 3.6150000000 19.8825000000
Cu 5.4225000000 5.4225000000 18.0750000000
Cu 3.6150000000 3.6150000000 21.6900000000
Cu 3.6150000000 5.4225000000 23.4975000000
Cu 5.4225000000 3.6150000000 23.4975000000
Cu 5.4225000000 5.4225000000 21.6900000000
Cu 3.6150000000 3.6150000000 25.3050000000
Cu 3.6150000000 5.4225000000 27.1125000000
Cu 5.4225000000 3.6150000000 27.1125000000
Cu 5.4225000000 5.4225000000 25.3050000000
Cu 3.6150000000 7.2300000000 0.0000000000
Cu 3.6150000000 9.0375000000 1.8075000000
Cu 5.4225000000 7.2300000000 1.8075000000
Cu 5.4225000000 9.0375000000 0.0000000000
Cu 3.6150000000 7.2300000000 3.6150000000
Cu 3.6150000000 9.0375000000 5.4225000000
Cu 5.4225000000 7.2300000000 5.4225000000
Cu 5.4225000000 9.0375000000 3.6150000000
Cu 3.6150000000 7.2300000000 7.2300000000
Cu 3.6150000000 9.0375000000 9.0375000000
Cu 5.4225000000 7.2300000000 9.0375000000
Cu 5.4225000000 9.0375000000 7.2300000000
Cu 3.6150000000 7.2300000000 10.8450000000
Cu 3.6150000000 9.0375000000 12.6525000000
Cu 5.4225000000 7.2300000000 12.6525000000
Cu 5.4225000000 9.0375000000 10.8450000000
Cu 3.6150000000 7.2300000000 14.4600000000
Cu 3.6150000000 9.0375000000 16.2675000000
Cu 5.4225000000 7.2300000000 16.2675000000
Cu 5.4225000000 9.0375000000 14.4600000000
Cu 3.6150000000 7.2300000000 18.0750000000
Cu 3.6150000000 9.0375000000 19.8825000000
Cu 5.4225000000 7.2300000000 19.8825000000
Cu 5.4225000000 9.0375000000 18.0750000000
Cu 3.6150000000 7.2300000000 21.6900000000
Cu 3.6150000000 9.0375000000 23.4975000000
Cu 5.4225000000 7.2300000000 23.4975000000
Cu 5.4225000000 9.0375000000 21.6900000000
Cu 3.6150000000 7.2300000000 25.3050000000
Cu 3.6150000000 9.0375000000 27.1125000000
Cu 5.4225000000 7.2300000000 27.1125000000
Cu 5.4225000000 9.0375000000 25.3050000000
Cu 3.6150000000 10.8450000000 0.0000000000
Cu 3.6150000000 12.6525000000 1.8075000000
Cu 5.4225000000 10.8450000000 1.8075000000
Cu 5.4225000000 12.6525000000 0.0000000000
Cu 3.6150000000 10.8450000000 3.6150000000
Cu 3.6150000000 12.6525000000 5.4225000000
Cu 5.4225000000 10.8450000000 5.4225000000
Cu 5.4225000000 12.6525000000 3.6150000000
Cu 3.6150000000 10.8450000000 7.2300000000
Cu 3.6150000000 12.6525000000 9.0375000000
Cu 5.4225000000 10.8450000000 9.0375000000
Cu 5.4225000000 12.6525000000 7.2300000000
Cu 3.6150000000 10.8450000000 10.8450000000
Cu 3.6150000000 12.6525000000 12.6525000000
Cu 5.4225000000 10.8450000000 12.6525000000
Cu 5.4225000000 12.6525000000 10.8450000000
Cu 3.6150000000 10.8450000000 14.4600000000
Cu 3.6150000000 12.6525000000 16.2675000000
Cu 5.4225000000 10.8450000000 16.2675000000
Cu 5.4225000000 12.6525000000 14.4600000000
Cu 3.6150000000 10.8450000000 18.0750000000
Cu 3.6150000000 12.6525000000 19.8825000000
Cu 5.4225000000 10.8450000000 19.8825000000
Cu 5.4225000000 12.6525000000 18.0750000000
Cu 3.6150000000 10.8450000000 21.6900000000
Cu 3.6150000000 12.6525000000 23.4975000000
Cu 5.4225000000 10.8450000000 23.4975000000
Cu 5.4225000000 12.6525000000 21.6900000000
Cu 3.6150000000 10.8450000000 25.3050000000
Cu 3.6150000000 12.6525000000 27.1125000000
Cu 5.4225000000 10.8450000000 27.1125000000
Cu 5.4225000000 12.6525000000 25.3050000000
Cu 3.6150000000 14.4600000000 0.0000000000
Cu 3.6150000000 16.2675000000 1.8075000000
Cu 5.4225000000 14.4600000000 1.8075000000
Cu 5.4225000000 16.2675000000 0.0000000000
Cu 3.6150000000 14.4600000000 3.6150000000
Cu 3.6150000000 16.2675000000 5.4225000000
Cu 5.4225000000 14.4600000000 5.4225000000
Cu 5.4225000000 16.2675000000 3.6150000000
Cu 3.6150000000 14.4600000000 7.2300000000
Cu 3.6150000000 16.2675000000 9.0375000000
Cu 5.4225000000 14.4600000000 9.0375000000
Cu 5.4225000000 16.2675000000 7.2300000000
Cu 3.6150000000 14.4600000000 10.8450000000
Cu 3.6150000000 16.2675000000 12.6525000000
Cu 5.4225000000 14.4600000000 12.6525000000
Cu 5.4225000000 16.2675000000 10.8450000000
Cu 3.6150000000 14.4600000000 14.4600000000
Cu 3.6150000000 16.2675000000 16.2675000000
Cu 5.4225000000 14.4600000000 16.2675000000
Cu 5.4225000000 16.2675000000 14.4600000000
Cu 3.6150000000 14.4600000000 18.0750000000
Cu 3.6150000000 16.2675000000 19.8825000000
Cu 5.4225000000 14.4600000000 19.8825000000
Cu 5.4225000000 16.2675000000 18.0750000000
Cu 3.6150000000 14.4600000000 21.6900000000
Cu 3.6150000000 16.2675000000 23.4975000000
Cu 5.4225000000 14.4600000000 23.4975000000
Cu 5.4225000000 16.2675000000 21.6900000000
Cu 3.6150000000 14.4600000000 25.3050000000
Cu 3.6150000000 16.2675000000 27.1125000000
Cu 5.4225000000 14.4600000000 27.1125000000
Cu 5.4225000000 16.2675000000 25.3050000000
Cu 3.6150000000 18.0750000000 0.0000000000
Cu 3.6150000000 19.8825000000 1.8075000000
Cu 5.4225000000 18.0750000000 1.8075000000
Cu 5.4225000000 19.8825000000 0.0000000000
Cu 3.6150000000 18.0750000000 3.6150000000
Cu 3.6150000000 19.8825000000 5.4225000000
Cu 5.4225000000 18.0750000000 5.4225000000
Cu 5.4225000000 19.8825000000 3.6150000000
Cu 3.6150000000 18.0750000000 7.2300000000
Cu 3.6150000000 19.8825000000 9.0375000000
Cu 5.4225000000 18.0750000000 9.0375000000
Cu 5.4225000000 19.8825000000 7.2300000000
Cu 3.6150000000 18.0750000000 10.8450000000
Cu 3.6150000000 19.8825000000 12.6525000000
Cu 5.4225000000 18.0750000000 12.6525000000
Cu 5.4225000000 19.8825000000 10.8450000000
Cu 3.6150000000 18.0750000000 14.4600000000
Cu 3.6150000000 19.8825000000 16.2675000000
Cu 5.4225000000 18.0750000000 16.2675000000
Cu 5.4225000000 19.8825000000 14.4600000000
Cu 3.6150000000 18.0750000000 18.0750000000
Cu 3.6150000000 19.8825000000 19.8825000000
Cu 5.4225000000 18.0750000000 19.8825000000
Cu 5.4225000000 19.8825000000 18.0750000000
Cu 3.6150000000 18.0750000000 21.6900000000
Cu 3.6150000000 19.8825000000 23.4975000000
Cu 5.4225000000 18.0750000000 23.4975000000
Cu 5.4225000000 19.8825000000 21.6900000000
Cu 3.6150000000 18.0750000000 25.3050000000
Cu 3.6150000000 19.8825000000 27.1125000000
Cu 5.4225000000 18.0750000000 27.1125000000
Cu 5.4225000000 19.8825000000 25.3050000000
Cu 3.6150000000 21.6900000000 0.0000000000
Cu 3.6150000000 23.4975000000 1.8075000000
Cu 5.4225000000 21.6900000000 1.8075000000
Cu 5.4225000000 23.4975000000 0.0000000000
Cu 3.6150000000 21.6900000000 3.6150000000
Cu 3.6150000000 23.4975000000 5.4225000000
Cu 5.4225000000 21.6900000000 5.4225000000
Cu 5.4225000000 23.4975000000 3.6150000000
Cu 3.6150000000 21.6900000000 7.2300000000
Cu 3.6150000000 23.4975000000 9.0375000000
Cu 5.4225000000 21.6900000000 9.0375000000
Cu 5.4225000000 23.4975000000 7.2300000000
Cu 3.6150000000 21.6900000000 10.8450000000
Cu 3.6150000000 23.4975000000 12.6525000000
Cu 5.4225000000 21.6900000000 12.6525000000
Cu 5.4225000000 23.4975000000 10.8450000000
Cu 3.6150000000 21.6900000000 14.4600000000
Cu 3.6150000000 23.4975000000 16.2675000000
Cu 5.4225000000 21.6900000000 16.2675000000
Cu 5.4225000000 23.4975000000 14.4600000000
Cu 3.6150000000 21.6900000000 18.0750000000
Cu 3.6150000000 23.4975000000 19.8825000000
Cu 5.4225000000 21.6900000000 19.8825000000
Cu 5.4225000000 23.4975000000 18.0750000000
Cu 3.6150000000 21.6900000000 21.6900000000
Cu 3.6150000000 23.4975000000 23.4975000000
Cu 5.4225000000 21.6900000000 23.4975000000
Cu 5.4225000000 23.4975000000 21.6900000000
Cu 3.6150000000 21.6900000000 25.3050000000
Cu 3.6150000000 23.4975000000 27.1125000000
Cu 5.4225000000 21.6900000000 27.1125000000
Cu 5.4225000000 23.4975000000 25.3050000000
Cu 3.6150000000 25.3050000000 0.0000000000
Cu 3.6150000000 27.1125000000 1.8075000000
Cu 5.4225000000 25.3050000000 1.8075000000
Cu 5.4225000000 27.1125000000 0.0000000000
Cu 3.6150000000 25.3050000000 3.6150000000
Cu 3.6150000000 27.1125000000 5.4225000000
Cu 5.4225000000 25.3050000000 5.4225000000
Cu 5.4225000000 27.1125000000 3.6150000000
Cu 3.6150000000 25.3050000000 7.2300000000
Cu 3.6150000000 27.1125000000 9.0375000000
Cu 5.4225000000 25.3050000000 9.0375000000
Cu 5.4225000000 27.1125000000 7.2300000000
Cu 3.6150000000 25.3050000000 10.8450000000
Cu 3.6150000000 27.1125000000 12.6525000000
Cu 5.4225000000 25.3050000000 12.6525000000
Cu 5.4225000000 27.1125000000 10.8450000000
Cu 3.6150000000 25.3050000000 14.4600000000
Cu 3.6150000000 27.1125000000 16.2675000000
Cu 5.4225000000 25.3050000000 16.2675000000
Cu 5.4225000000 27.1125000000 14.4600000000
Cu 3.6150000000 25.3050000000 18.0750000000
Cu 3.6150000000 27.1125000000 19.8825000000
Cu 5.4225000000 25.3050000000 19.8825000000
Cu 5.4225000000 27.1125000000 18.0750000000
Cu 3.6150000000 25.3050000000 21.6900000000
Cu 3.6150000000 27.1125000000 23.4975000000
Cu 5.4225000000 25.3050000000 23.4975000000
Cu 5.4225000000 27.1125000000 21.6900000000
Cu 3.6150000000 25.3050000000 25.3050000000
Cu 3.6150000000 27.1125000000 27.1125000000
Cu 5.4225000000 25.3050000000 27.1125000000
Cu 5.4225000000 27.1125000000 25.3050000000
Cu 7.2300000000 0.0000000000 0.0000000000
Cu 7.2300000000 1.8075000000 1.8075000000
Cu 9.0375000000 0.0000000000 1.8075000000
Cu 9.0375000000 1.8075000000 0.0000000000
Cu 7.2300000000 0.0000000000 3.6150000000
Cu 7.2300000000 1.8075000000 5.4225000000
Cu 9.0375000000 0.0000000000 5.4225000000
Cu 9.0375000000 1.8075000000 3.6150000000
Cu 7.2300000000 0.0000000000 7.2300000000
Cu 7.2300000000 1.8075000000 9.0375000000
Cu 9.0375000000 0.0000000000 9.0375000000
Cu 9.0375000000 1.8075000000 7.2300000000
Cu 7.2300000000 0.0000000000 10.8450000000
Cu 7.2300000000 1.8075000000 12.6525000000
Cu 9.0375000000 0.0000000000 12.6525000000
Cu 9.0375000000 1.8075000000 10.8450000000
Cu 7.2300000000 0.0000000000 14.4600000000
Cu 7.2300000000 1.8075000000 16.2675000000
Cu 9.0375000000 0.0000000000 16.2675000000
Cu 9.0375000000 1.8075000000 14.4600000000
Cu 7.2300000000 0.0000000000 18.0750000000
Cu 7.2300000000 1.8075000000 19.8825000000
Cu 9.0375000000 0.0000000000 19.8825000000
Cu 9.0375000000 1.8075000000 18.0750000000
Cu 7.2300000000 0.0000000000 21.6900000000
Cu 7.2300000000 1.8075000000 23.4975000000
Cu 9.0375000000 0.0000000000 23.4975000000
Cu 9.0375000000 1.8075000000 21.6900000000
Cu 7.2300000000 0.0000000000 25.3050000000
Cu 7.2300000000 1.8075000000 27.1125000000
Cu 9.0375000000 0.0000000000 27.1125000000
Cu 9.0375000000 1.8075000000 25.3050000000
Cu 7.2300000000 3.6150000000 0.0000000000
Cu 7.2300000000 5.4225000000 1.8075000000
Cu 9.0375000000 3.6150000000 1.8075000000
Cu 9.0375000000 5.4225000000 0.0000000000
Cu 7.2300000000 3.6150000000 3.6150000000
Cu 7.2300000000 5.4225000000 5.4225000000
Cu 9.0375000000 3.6150000000 5.4225000000
Cu 9.0375000000 5.4225000000 3.6150000000
Cu 7.2300000000 3.6150000000 7.2300000000
Cu 7.2300000000 5.4225000000 9.0375000000
Cu 9.0375000000 3.6150000000 9.0375000000
Cu 9.0375000000 5.4225000000 7.2300000000
Cu 7.2300000000 3.6150000000 10.8450000000
Cu 7.2300000000 5.4225000000 12.6525000000
Cu 9.0375000000 3.6150000000 12.6525000000
Cu 9.0375000000 5.4225000000 10.8450000000
Cu 7.2300000000 3.6150000000 14.4600000000
Cu 7.2300000000 5.4225000000 16.2675000000
Cu 9.0375000000 3.6150000000 16.2675000000
Cu 9.0375000000 5.4225000000 14.4600000000
Cu 7.2300000000 3.6150000000 18.0750000000
Cu 7.2300000000 5.4225000000 19.8825000000
Cu 9.0375000000 3.6150000000 19.8825000000
Cu 9.0375000000 5.4225000000 18.0750000000
Cu 7.2300000000 3.6150000000 21.6900000000
Cu 7.2300000000 5.4225000000 23.4975000000
Cu 9.0375000000 3.6150000000 23.4975000000
Cu 9.0375000000 5.4225000000 21.6900000000
Cu 7.2300000000 3.6150000000 25.3050000000
Cu 7.2300000000 5.4225000000 27.1125000000
Cu 9.0375000000 3.6150000000 27.1125000000
Cu 9.0375000000 5.4225000000 25.3050000000
Cu 7.2300000000 7.2300000000 0.0000000000
Cu 7.2300000000 9.0375000000 1.8075000000
Cu 9.0375000000 7.2300000000 1.8075000000
Cu 9.0375000000 9.0375000000 0.0000000000
Cu 7.2300000000 7.2300000000 3.6150000000
Cu 7.2300000000 9.0375000000 5.4225000000
Cu 9.0375000000 7.2300000000 5.4225000000
Cu 9.0375000000 9.0375000000 3.6150000000
Cu 7.2300000000 7.2300000000 7.2300000000
Cu 7.2300000000 9.0375000000 9.0375000000
Cu 9.0375000000 7.2300000000 9.0375000000
Cu 9.0375000000 9.0375000000 7.2300000000
Cu 7.2300000000 7.2300000000 10.8450000000
Cu 7.2300000000 9.0375000000 12.6525000000
Cu 9.0375000000 7.2300000000 12.6525000000
Cu 9.0375000000 9.0375000000 10.8450000000
Cu 7.2300000000 7.2300000000 14.4600000000
Cu 7.2300000000 9.0375000000 16.2675000000
Cu 9.0375000000 7.2300000000 16.2675000000
Cu 9.0375000000 9.0375000000 14.4600000000
Cu 7.2300000000 7.2300000000 18.0750000000
Cu 7.2300000000 9.0375000000 19.8825000000
Cu 9.0375000000 7.2300000000 19.8825000000
Cu 9.0375000000 9.0375000000 18.0750000000
Cu 7.2300000000 7.2300000000 21.6900000000
Cu 7.2300000000 9.0375000000 23.4975000000
Cu 9.0375000000 7.2300000000 23.4975000000
Cu 9.0375000000 9.0375000000 21.6900000000
Cu 7.2300000000 7.2300000000 25.3050000000
Cu 7.2300000000 9.0375000000 27.1125000000
Cu 9.0375000000 7.2300000000 27.1125000000
Cu 9.0375000000 9.0375000000 25.3050000000
Cu 7.2300000000 10.8450000000 0.0000000000
Cu 7.2300000000 12.6525000000 1.8075000000
Cu 9.0375000000 10.8450000000 1.8075000000
Cu 9.0375000000 12.6525000000 0.0000000000
Cu 7.2300000000 10.8450000000 3.6150000000
Cu 7.2300000000 12.6525000000 5.4225000000
Cu 9.0375000000 10.8450000000 5.4225000000
Cu 9.0375000000 12.6525000000 3.6150000000
Cu 7.2300000000 10.8450000000 7.2300000000
Cu 7.2300000000 12.6525000000 9.0375000000
Cu 9.0375000000 10.8450000000 9.0375000000
Cu 9.0375000000 12.6525000000 7.2300000000
Cu 7.2300000000 10.8450000000 10.8450000000
Cu 7.2300000000 12.6525000000 12.6525000000
Cu 9.0375000000 10.8450000000 12.6525000000
Cu 9.0375000000 12.6525000000 10.8450000000
Cu 7.2300000000 10.8450000000 14.4600000000
Cu 7.2300000000 12.6525000000 16.2675000000
Cu 9.0375000000 10.8450000000 16.2675000000
Cu 9.0375000000 12.6525000000 14.4600000000
Cu 7.2300000000 10.8450000000 18.0750000000
Cu 7.2300000000 12.6525000000 19.8825000000
Cu 9.0375000000 10.8450000000 19.8825000000
Cu 9.0375000000 12.6525000000 18.0750000000
Cu 7.2300000000 10.8450000000 21.6900000000
Cu 7.2300000000 12.6525000000 23.4975000000
Cu 9.0375000000 10.8450000000 23.4975000000
Cu 9.0375000000 12.6525000000 21.6900000000
Cu 7.2300000000 10.8450000000 25.3050000000
Cu 7.2300000000 12.6525000000 27.1125000000
Cu 9.0375000000 10.8450000000 27.1125000000
Cu 9.0375000000 12.6525000000 25.3050000000
Cu 7.2300000000 14.4600000000 0.0000000000
Cu 7.2300000000 16.2675000000 1.8075000000
Cu 9.0375000000 14.4600000000 1.8075000000
Cu 9.0375000000 16.2675000000 0.0000000000
Cu 7.2300000000 14.4600000000 3.6150000000
Cu 7.2300000000 16.2675000000 5.4225000000
Cu 9.0375000000 14.4600000000 5.4225000000
Cu 9.0375000000 16.2675000000 3.6150000000
Cu 7.2300000000 14.4600000000 7.2300000000
Cu 7.2300000000 16.2675000000 9.0375000000
Cu 9.0375000000 14.4600000000 9.0375000000
Cu 9.0375000000 16.2675000000 7.2300000000
Cu 7.2300000000 14.4600000000 10.8450000000
Cu 7.2300000000 16.2675000000 12.6525000000
Cu 9.0375000000 14.4600000000 12.6525000000
Cu 9.0375000000 16.2675000000 10.8450000000
Cu 7.2300000000 14.4600000000 14.4600000000
Cu 7.2300000000 16.2675000000 16.2675000000
Cu 9.0375000000 14.4600000000 16.2675000000
Cu 9.0375000000 16.2675000000 14.4600000000
Cu 7.2300000000 14.4600000000 18.0750000000
Cu 7.2300000000 16.2675000000 19.8825000000
Cu 9.0375000000 14.4600000000 19.8825000000
Cu 9.0375000000 16.2675000000 18.0750000000
Cu 7.2300000000 14.4600000000 21.6900000000
Cu 7.2300000000 16.2675000000 23.4975000000
Cu 9.0375000000 14.4600000000 23.4975000000
Cu 9.0375000000 16.2675000000 21.6900000000
Cu 7.2300000000 14.4600000000 25.3050000000
Cu 7.2300000000 16.2675000000 27.1125000000
Cu 9.0375000000 14.4600000000 27.1125000000
Cu 9.0375000000 16.2675000000 25.3050000000
Cu 7.2300000000 18.0750000000 0.0000000000
Cu 7.2300000000 19.8825000000 1.8075000000
Cu 9.0375000000 18.0750000000 1.8075000000
Cu 9.0375000000 19.8825000000 0.0000000000
Cu 7.2300000000 18.0750000000 3.6150000000
Cu 7.2300000000 19.8825000000 5.4225000000
Cu 9.0375000000 18.0750000000 5.4225000000
Cu 9.0375000000 19.8825000000 3.6150000000
Cu 7.2300000000 18.0750000000 7.2300000000
Cu 7.2300000000 19.8825000000 9.0375000000
Cu 9.0375000000 18.0750000000 9.0375000000
Cu 9.0375000000 19.8825000000 7.2300000000
Cu 7.2300000000 18.0750000000 10.8450000000
Cu 7.2300000000 19.8825000000 12.6525000000
Cu 9.0375000000 18.0750000000 12.6525000000
Cu 9.0375000000 19.8825000000 10.8450000000
Cu 7.2300000000 18.0750000000 14.4600000000
Cu 7.2300000000 19.8825000000 16.2675000000
Cu 9.0375000000 18.0750000000 16.2675000000
Cu 9.0375000000 19.8825000000 14.4600000000
Cu 7.2300000000 18.0750000000 18.0750000000
Cu 7.2300000000 19.8825000000 19.8825000000
Cu 9.0375000000 18.0750000000 19.8825000000
Cu 9.0375000000 19.8825000000 18.0750000000
Cu 7.2300000000 18.0750000000 21.6900000000
Cu 7.2300000000 19.8825000000 23.4975000000
Cu 9.0375000000 18.0750000000 23.4975000000
Cu 9.0375000000 19.8825000000 21.6900000000
Cu 7.2300000000 18.0750000000 25.3050000000
Cu 7.2300000000 19.8825000000 27.1125000000
Cu 9.0375000000 18.0750000000 27.1125000000
Cu 9.0375000000 19.8825000000 25.3050000000
Cu 7.2300000000 21.6900000000 0.0000000000
Cu 7.2300000000 23.4975000000 1.8075000000
Cu 9.0375000000 21.6900000000 1.8075000000
Cu 9.0375000000 23.4975000000 0.0000000000
Cu 7.2300000000 21.6900000000 3.6150000000
Cu 7.2300000000 23.4975000000 5.4225000000
Cu 9.0375000000 21.6900000000 5.4225000000
Cu 9.0375000000 23.4975000000 3.6150000000
Cu 7.2300000000 21.6900000000 7.2300000000
Cu 7.2300000000 23.4975000000 9.0375000000
Cu 9.0375000000 21.6900000000 9.0375000000
Cu 9.0375000000 23.4975000000 7.2300000000
Cu 7.2300000000 21.6900000000 10.8450000000
Cu 7.2300000000 23.4975000000 12.6525000000
Cu 9.0375000000 21.6900000000 12.6525000000
Cu 9.0375000000 23.4975000000 10.8450000000
Cu 7.2300000000 21.6900000000 14.4600000000
Cu 7.2300000000 23.4975000000 16.2675000000
Cu 9.0375000000 21.6900000000 16.2675000000
Cu 9.0375000000 23.4975000000 14.4600000000
Cu 7.2300000000 21.6900000000 18.0750000000
Cu 7.2300000000 23.4975000000 19.8825000000
Cu 9.0375000000 21.6900000000 19.8825000000
Cu 9.0375000000 23.4975000000 18.0750000000
Cu 7.2300000000 21.6900000000 21.6900000000
Cu 7.2300000000 23.4975000000 23.4975000000
Cu 9.0375000000 21.6900000000 23.4975000000
Cu 9.0375000000 23.4975000000 21.6900000000
Cu 7.2300000000 21.6900000000 25.3050000000
Cu 7.2300000000 23.4975000000 27.1125000000
Cu 9.0375000000 21.6900000000 27.1125000000
Cu 9.0375000000 23.4975000000 25.3050000000
Cu 7.2300000000 25.3050000000 0.0000000000
Cu 7.2300000000 27.1125000000 1.8075000000
Cu 9.0375000000 25.3050000000 1.8075000000
Cu 9.0375000000 27.1125000000 0.0000000000
Cu 7.2300000000 25.3050000000 3.6150000000
Cu 7.2300000000 27.1125000000 5.4225000000
Cu 9.0375000000 25.3050000000 5.4225000000
Cu 9.0375000000 27.1125000000 3.6150000000
Cu 7.2300000000 25.3050000000 7.2300000000
Cu 7.2300000000 27.1125000000 9.0375000000
Cu 9.0375000000 25.3050000000 9.0375000000
Cu 9.0375000000 27.1125000000 7.2300000000
Cu 7.2300000000 25.3050000000 10.8450000000
Cu 7.2300000000 27.1125000000 12.6525000000
Cu 9.0375000000 25.3050000000 12.6525000000
Cu 9.0375000000 27.1125000000 10.8450000000
Cu 7.2300000000 25.3050000000 14.4600000000
Cu 7.2300000000 27.1125000000 16.2675000000
Cu 9.0375000000 25.3050000000 16.2675000000
Cu 9.0375000000 27.1125000000 14.4600000000
Cu 7.2300000000 25.3050000000 18.0750000000
Cu 7.2300000000 27.1125000000 19.8825000000
Cu 9.0375000000 25.3050000000 19.8825000000
Cu 9.0375000000 27.1125000000 18.0750000000
Cu 7.2300000000 25.3050000000 21.6900000000
Cu 7.2300000000 27.1125000000 23.4975000000
Cu 9.0375000000 25.3050000000 23.4975000000
Cu 9.0375000000 27.1125000000 21.6900000000
Cu 7.2300000000 25.3050000000 25.3050000000
Cu 7.2300000000 27.1125000000 27.1125000000
Cu 9.0375000000 25.3050000000 27.1125000000
Cu 9.0375000000 27.1125000000 25.3050000000
Cu 10.8450000000 0.0000000000 0.0000000000
Cu 10.8450000000 1.8075000000 1.8075000000
Cu 12.6525000000 0.0000000000 1.8075000000
Cu 12.6525000000 1.8075000000 0.0000000000
Cu 10.8450000000 0.0000000000 3.6150000000
Cu 10.8450000000 1.8075000000 5.4225000000
Cu 12.6525000000 0.0000000000 5.4225000000
Cu 12.6525000000 1.8075000000 3.6150000000
Cu 10.8450000000 0.0000000000 7.2300000000
Cu 10.8450000000 1.8075000000 9.0375000000
Cu 12.6525000000 0.0000000000 9.0375000000
Cu 12.6525000000 1.8075000000 7.2300000000
Cu 10.8450000000 0.0000000000 10.8450000000
Cu 10.8450000000 1.8075000000 12.6525000000
Cu 12.6525000000 0.0000000000 12.6525000000
Cu 12.6525000000 1.8075000000 10.8450000000
Cu 10.8450000000 0.0000000000 14.4600000000
Cu 10.8450000000 1.8075000000 16.2675000000
Cu 12.6525000000 0.0000000000 16.2675000000
Cu 12.6525000000 1.8075000000 14.4600000000
Cu 10.8450000000 0.0000000000 18.0750000000
Cu 10.8450000000 1.8075000000 19.8825000000
Cu 12.6525000000 0.0000000000 19.8825000000
Cu 12.6525000000 1.8075000000 18.0750000000
Cu 10.8450000000 0.0000000000 21.6900000000
Cu 10.8450000000 1.8075000000 23.4975000000
Cu 12.6525000000 0.0000000000 23.4975000000
Cu 12.6525000000 1.8075000000 21.6900000000
Cu 10.8450000000 0.0000000000 25.3050000000
Cu 10.8450000000 1.8075000000 27.1125000000
Cu 12.6525000000 0.0000000000 27.1125000000
Cu 12.6525000000 1.8075000000 25.3050000000
Cu 10.8450000000 3.6150000000 0.0000000000
Cu 10.8450000000 5.4225000000 1.8075000000
Cu 12.6525000000 3.6150000000 1.8075000000
Cu 12.6525000000 5.4225000000 0.0000000000
Cu 10.8450000000 3.6150000000 3.6150000000
Cu 10.8450000000 5.4225000000 5.4225000000
Cu 12.6525000000 3.6150000000 5.4225000000
Cu 12.6525000000 5.4225000000 3.6150000000
Cu 10.8450000000 3.6150000000 7.2300000000
Cu 10.8450000000 5.4225000000 9.0375000000
Cu 12.6525000000 3.6150000000 9.0375000000
Cu 12.6525000000 5.4225000000 7.2300000000
Cu 10.8450000000 3.6150000000 10.8450000000
Cu 10.8450000000 5.4225000000 12.6525000000
Cu 12.6525000000 3.6150000000 12.6525000000
Cu 12.6525000000 5.4225000000 10.8450000000
Cu 10.8450000000 3.6150000000 14.4600000000
Cu 10.8450000000 5.4225000000 16.2675000000
Cu 12.6525000000 3.6150000000 16.2675000000
Cu 12.6525000000 5.4225000000 14.4600000000
Cu 10.8450000000 3.6150000000 18.0750000000
Cu 10.8450000000 5.4225000000 19.8825000000
Cu 12.6525000000 3.6150000000 19.8825000000
Cu 12.6525000000 5.4225000000 18.0750000000
Cu 10.8450000000 3.6150000000 21.6900000000
Cu 10.8450000000 5.4225000000 23.4975000000
Cu 12.6525000000 3.6150000000 23.4975000000
Cu 12.6525000000 5.4225000000 21.6900000000
Cu 10.8450000000 3.6150000000 25.3050000000
Cu 10.8450000000 5.4225000000 27.1125000000
Cu 12.6525000000 3.6150000000 27.1125000000
Cu 12.6525000000 5.4225000000 25.3050000000
Cu 10.8450000000 7.2300000000 0.0000000000
Cu 10.8450000000 9.0375000000 1.8075000000
Cu 12.6525000000 7.2300000000 1.8075000000
Cu 12.6525000000 9.0375000000 0.0000000000
Cu 10.8450000000 7.2300000000 3.6150000000
Cu 10.8450000000 9.0375000000 5.4225000000
Cu 12.6525000000 7.2300000000 5.4225000000
Cu 12.6525000000 9.0375000000 3.6150000000
Cu 10.8450000000 7.2300000000 7.2300000000
Cu 10.8450000000 9.0375000000 9.0375000000
Cu 12.6525000000 7.2300000000 9.0375000000
Cu 12.6525000000 9.0375000000 7.2300000000
Cu 10.8450000000 7.2300000000 10.8450000000
Cu 10.8450000000 9.0375000000 12.6525000000
Cu 12.6525000000 7.2300000000 12.6525000000
Cu 12.6525000000 9.0375000000 10.8450000000
Cu 10.8450000000 7.2300000000 14.4600000000
Cu 10.8450000000 9.0375000000 16.2675000000
Cu 12.6525000000 7.2300000000 16.2675000000
Cu 12.6525000000 9.0375000000 14.4600000000
Cu 10.8450000000 7.2300000000 18.0750000000
Cu 10.8450000000 9.0375000000 19.8825000000
Cu 12.6525000000 7.2300000000 19.8825000000
Cu 12.6525000000 9.0375000000 18.0750000000
Cu 10.8450000000 7.2300000000 21.6900000000
Cu 10.8450000000 9.0375000000 23.4975000000
Cu 12.6525000000 7.2300000000 23.4975000000
Cu 12.6525000000 9.0375000000 21.6900000000
Cu 10.8450000000 7.2300000000 25.3050000000
Cu 10.8450000000 9.0375000000 27.1125000000
Cu 12.6525000000 7.2300000000 27.1125000000
Cu 12.6525000000 9.0375000000 25.3050000000
Cu 10.8450000000 10.8450000000 0.0000000000
Cu 10.8450000000 12.6525000000 1.8075000000
Cu 12.6525000000 10.8450000000 1.8075000000
Cu 12.6525000000 12.6525000000 0.0000000000
Cu 10.8450000000 10.8450000000 3.6150000000
Cu 10.8450000000 12.6525000000 5.4225000000
Cu 12.6525000000 10.8450000000 5.4225000000
Cu 12.6525000000 12.6525000000 3.6150000000
Cu 10.8450000000 10.8450000000 7.2300000000
Cu 10.8450000000 12.6525000000 9.0375000000
Cu 12.6525000000 10.8450000000 9.0375000000
Cu 12.6525000000 12.6525000000 7.2300000000
Cu 10.8450000000 10.8450000000 10.8450000000
Cu 10.8450000000 12.6525000000 12.6525000000
Cu 12.6525000000 10.8450000000 12.6525000000
Cu 12.6525000000 12.6525000000 10.8450000000
Cu 10.8450000000 10.8450000000 14.4600000000
Cu 10.8450000000 12.6525000000 16.2675000000
Cu 12.6525000000 10.8450000000 16.2675000000
Cu 12.6525000000 12.6525000000 14.4600000000
Cu 10.8450000000 10.8450000000 18.0750000000
Cu 10.8450000000 12.6525000000 19.8825000000
Cu 12.6525000000 10.8450000000 19.8825000000
Cu 12.6525000000 12.6525000000 18.0750000000
Cu 10.8450000000 10.8450000000 21.6900000000
Cu 10.8450000000 12.6525000000 23.4975000000
Cu 12.6525000000 10.8450000000 23.4975000000
Cu 12.6525000000 12.6525000000 21.6900000000
Cu 10.8450000000 10.8450000000 25.3050000000
Cu 10.8450000000 12.6525000000 27.1125000000
Cu 12.6525000000 10.8450000000 27.1125000000
Cu 12.6525000000 12.6525000000 25.3050000000
Cu 10.8450000000 14.4600000000 0.0000000000
Cu 10.8450000000 16.2675000000 1.8075000000
Cu 12.6525000000 14.4600000000 1.8075000000
Cu 12.6525000000 16.2675000000 0.0000000000
Cu 10.8450000000 14.4600000000 3.6150000000
Cu 10.8450000000 16.2675000000 5.4225000000
Cu 12.6525000000 14.4600000000 5.4225000000
Cu 12.6525000000 16.2675000000 3.6150000000
Cu 10.8450000000 14.4600000000 7.2300000000
Cu 10.8450000000 16.2675000000 9.0375000000
Cu 12.6525000000 14.4600000000 9.0375000000
Cu 12.6525000000 16.2675000000 7.2300000000
Cu 10.8450000000 14.4600000000 10.8450000000
Cu 10.8450000000 16.2675000000 12.6525000000
Cu 12.6525000000 14.4600000000 12.6525000000
Cu 12.6525000000 16.2675000000 10.8450000000
Cu 10.8450000000 14.4600000000 14.4600000000
Cu 10.8450000000 16.2675000000 16.2675000000
Cu 12.6525000000 14.4600000000 16.2675000000
Cu 12.6525000000 16.2675000000 14.4600000000
Cu 10.8450000000 14.4600000000 18.0750000000
Cu 10.8450000000 16.2675000000 19.8825000000
Cu 12.6525000000 14.4600000000 19.8825000000
Cu 12.6525000000 16.2675000000 18.0750000000
Cu 10.8450000000 14.4600000000 21.6900000000
Cu 10.8450000000 16.2675000000 23.4975000000
Cu 12.6525000000 14.4600000000 23.4975000000
Cu 12.6525000000 16.2675000000 21.6900000000
Cu 10.8450000000 14.4600000000 25.3050000000
Cu 10.8450000000 16.2675000000 27.1125000000
Cu 12.6525000000 14.4600000000 27.1125000000
Cu 12.6525000000 16.2675000000 25.3050000000
Cu 10.8450000000 18.0750000000 0.0000000000
Cu 10.8450000000 19.8825000000 1.8075000000
Cu 12.6525000000 18.0750000000 1.8075000000
Cu 12.6525000000 19.8825000000 0.0000000000
Cu 10.8450000000 18.0750000000 3.6150000000
Cu 10.8450000000 19.8825000000 5.4225000000
Cu 12.6525000000 18.0750000000 5.4225000000
Cu 12.6525000000 19.8825000000 3.6150000000
Cu 10.8450000000 18.0750000000 7.2300000000
Cu 10.8450000000 19.8825000000 9.0375000000
Cu 12.6525000000 18.0750000000 9.0375000000
Cu 12.6525000000 19.8825000000 7.2300000000
Cu 10.8450000000 18.0750000000 10.8450000000
Cu 10.8450000000 19.8825000000 12.6525000000
Cu 12.6525000000 18.0750000000 12.6525000000
Cu 12.6525000000 19.8825000000 10.8450000000
Cu 10.8450000000 18.0750000000 14.4600000000
Cu 10.8450000000 19.8825000000 16.2675000000
Cu 12.6525000000 18.0750000000 16.2675000000
Cu 12.6525000000 19.8825000000 14.4600000000
Cu 10.8450000000 18.0750000000 18.0750000000
Cu 10.8450000000 19.8825000000 19.8825000000
Cu 12.6525000000 18.0750000000 19.8825000000
Cu 12.6525000000 19.8825000000 18.0750000000
Cu 10.8450000000 18.0750000000 21.6900000000
Cu 10.8450000000 19.8825000000 23.4975000000
Cu 12.6525000000 18.0750000000 23.4975000000
Cu 12.6525000000 19.8825000000 21.6900000000
Cu 10.8450000000 18.0750000000 25.3050000000
Cu 10.8450000000 19.8825000000 27.1125000000
Cu 12.6525000000 18.0750000000 27.1125000000
Cu 12.6525000000 19.8825000000 25.3050000000
Cu 10.8450000000 21.6900000000 0.0000000000
Cu 10.8450000000 23.4975000000 1.8075000000
Cu 12.6525000000 21.6900000000 1.8075000000
Cu 12.6525000000 23.4975000000 0.0000000000
Cu 10.8450000000 21.6900000000 3.6150000000
Cu 10.8450000000 23.4975000000 5.4225000000
Cu 12.6525000000 21.6900000000 5.4225000000
Cu 12.6525000000 23.4975000000 3.6150000000
Cu 10.8450000000 21.6900000000 7.2300000000
Cu 10.8450000000 23.4975000000 9.0375000000
Cu 12.6525000000 21.6900000000 9.0375000000
Cu 12.6525000000 23.4975000000 7.2300000000
Cu 10.8450000000 21.6900000000 10.8450000000
Cu 10.8450000000 23.4975000000 12.6525000000
Cu 12.6525000000 21.6900000000 12.6525000000
Cu 12.6525000000 23.4975000000 10.8450000000
Cu 10.8450000000 21.6900000000 14.4600000000
Cu 10.8450000000 23.4975000000 16.2675000000
Cu 12.6525000000 21.6900000000 16.2675000000
Cu 12.6525000000 23.4975000000 14.4600000000
Cu 10.8450000000 21.6900000000 18.0750000000
Cu 10.8450000000 23.4975000000 19.8825000000
Cu 12.6525000000 21.6900000000 19.8825000000
Cu 12.6525000000 23.4975000000 18.0750000000
Cu 10.8450000000 21.6900000000 21.6900000000
Cu 10.8450000000 23.4975000000 23.4975000000
Cu 12.6525000000 21.6900000000 23.4975000000
Cu 12.6525000000 23.4975000000 21.6900000000
Cu 10.8450000000 21.6900000000 25.3050000000
Cu 10.8450000000 23.4975000000 27.1125000000
Cu 12.6525000000 21.6900000000 27.1125000000
Cu 12.6525000000 23.4975000000 25.3050000000
Cu 10.8450000000 25.3050000000 0.0000000000
Cu 10.8450000000 27.1125000000 1.8075000000
Cu 12.6525000000 25.3050000000 1.8075000000
Cu 12.6525000000 27.1125000000 0.0000000000
Cu 10.8450000000 25.3050000000 3.6150000000
Cu 10.8450000000 27.1125000000 5.4225000000
Cu 12.6525000000 25.3050000000 5.4225000000
Cu 12.6525000000 27.1125000000 3.6150000000
Cu 10.8450000000 25.3050000000 7.2300000000
Cu 10.8450000000 27.1125000000 9.0375000000
Cu 12.6525000000 25.3050000000 9.0375000000
Cu 12.6525000000 27.1125000000 7.2300000000
Cu 10.8450000000 25.3050000000 10.8450000000
Cu 10.8450000000 27.1125000000 12.6525000000
Cu 12.6525000000 25.3050000000 12.6525000000
Cu 12.6525000000 27.1125000000 10.8450000000
Cu 10.8450000000 25.3050000000 14.4600000000
Cu 10.8450000000 27.1125000000 16.2675000000
Cu 12.6525000000 25.3050000000 16.2675000000
Cu 12.6525000000 27.1125000000 14.4600000000
Cu 10.8450000000 25.3050000000 18.0750000000
Cu 10.8450000000 27.1125000000 19.8825000000
Cu 12.6525000000 25.3050000000 19.8825000000
Cu 12.6525000000 27.1125000000 18.0750000000
Cu 10.8450000000 25.3050000000 21.6900000000
Cu 10.8450000000 27.1125000000 23.4975000000
Cu 12.6525000000 25.3050000000 23.4975000000
Cu 12.6525000000 27.1125000000 21.6900000000
Cu 10.8450000000 25.3050000000 25.3050000000
Cu 10.8450000000 27.1125000000 27.1125000000
Cu 12.6525000000 25.3050000000 27.1125000000
Cu 12.6525000000 27.1125000000 25.3050000000
Cu 14.4600000000 0.0000000000 0.0000000000
Cu 14.4600000000 1.8075000000 1.8075000000
Cu 16.2675000000 0.0000000000 1.8075000000
Cu 16.2675000000 1.8075000000 0.0000000000
Cu 14.4600000000 0.0000000000 3.6150000000
Cu 14.4600000000 1.8075000000 5.4225000000
Cu 16.2675000000 0.0000000000 5.4225000000
Cu 16.2675000000 1.8075000000 3.6150000000
Cu 14.4600000000 0.0000000000 7.2300000000
Cu 14.4600000000 1.8075000000 9.0375000000
Cu 16.2675000000 0.0000000000 9.0375000000
Cu 16.2675000000 1.8075000000 7.2300000000
Cu 14.4600000000 0.0000000000 10.8450000000
Cu 14.4600000000 1.8075000000 12.6525000000
Cu 16.2675000000 0.0000000000 12.6525000000
Cu 16.2675000000 1.8075000000 10.8450000000
Cu 14.4600000000 0.0000000000 14.4600000000
Cu 14.4600000000 1.8075000000 16.2675000000
Cu 16.2675000000 0.0000000000 16.2675000000
Cu 16.2675000000 1.8075000000 14.4600000000
Cu 14.4600000000 0.0000000000 18.0750000000
Cu 14.4600000000 1.8075000000 19.8825000000
Cu 16.2675000000 0.0000000000 19.8825000000
Cu 16.2675000000 1.8075000000 18.0750000000
Cu 14.4600000000 0.0000000000 21.6900000000
Cu 14.4600000000 1.8075000000 23.4975000000
Cu 16.2675000000 0.0000000000 23.4975000000
Cu 16.2675000000 1.8075000000 21.6900000000
Cu 14.4600000000 0.0000000000 25.3050000000
Cu 14.4600000000 1.8075000000 27.1125000000
Cu 16.2675000000 0.0000000000 27.1125000000
Cu 16.2675000000 1.8075000000 25.3050000000
Cu 14.4600000000 3.6150000000 0.0000000000
Cu 14.4600000000 5.4225000000 1.8075000000
Cu 16.2675000000 3.6150000000 1.8075000000
Cu 16.2675000000 5.4225000000 0.0000000000
Cu 14.4600000000 3.6150000000 3.6150000000
Cu 14.4600000000 5.4225000000 5.4225000000
Cu 16.2675000000 3.6150000000 5.4225000000
Cu 16.2675000000 5.4225000000 3.6150000000
Cu 14.4600000000 3.6150000000 7.2300000000
Cu 14.4600000000 5.4225000000 9.0375000000
Cu 16.2675000000 3.6150000000 9.0375000000
Cu 16.2675000000 5.4225000000 7.2300000000
Cu 14.4600000000 3.6150000000 10.8450000000
Cu 14.4600000000 5.4225000000 12.6525000000
Cu 16.2675000000 3.6150000000 12.6525000000
Cu 16.2675000000 5.4225000000 10.8450000000
Cu 14.4600000000 3.6150000000 14.4600000000
Cu 14.4600000000 5.4225000000 16.2675000000
Cu 16.2675000000 3.6150000000 16.2675000000
Cu 16.2675000000 5.4225000000 14.4600000000
Cu 14.4600000000 3.6150000000 18.0750000000
Cu 14.4600000000 5.4225000000 19.8825000000
Cu 16.2675000000 3.6150000000 19.8825000000
Cu 16.2675000000 5.4225000000 18.0750000000
Cu 14.4600000000 3.6150000000 21.6900000000
Cu 14.4600000000 5.4225000000 23.4975000000
Cu 16.2675000000 3.6150000000 23.4975000000
Cu 16.2675000000 5.4225000000 21.6900000000
Cu 14.4600000000 3.6150000000 25.3050000000
Cu 14.4600000000 5.4225000000 27.1125000000
Cu 16.2675000000 3.6150000000 27.1125000000
Cu 16.2675000000 5.4225000000 25.3050000000
Cu 14.4600000000 7.2300000000 0.0000000000
Cu 14.4600000000 9.0375000000 1.8075000000
Cu 16.2675000000 7.2300000000 1.8075000000
Cu 16.2675000000 9.0375000000 0.0000000000
Cu 14.4600000000 7.2300000000 3.6150000000
Cu 14.4600000000 9.0375000000 5.4225000000
Cu 16.2675000000 7.2300000000 5.4225000000
Cu 16.2675000000 9.0375000000 3.6150000000
Cu 14.4600000000 7.2300000000 7.2300000000
Cu 14.4600000000 9.0375000000 9.0375000000
Cu 16.2675000000 7.2300000000 9.0375000000
Cu 16.2675000000 9.0375000000 7.2300000000
Cu 14.4600000000 7.2300000000 10.8450000000
Cu 14.4600000000 9.0375000000 12.6525000000
Cu 16.2675000000 7.2300000000 12.6525000000
Cu 16.2675000000 9.0375000000 10.8450000000
Cu 14.4600000000 7.2300000000 14.4600000000
Cu 14.4600000000 9.0375000000 16.2675000000
Cu 16.2675000000 7.2300000000 16.2675000000
Cu 16.2675000000 9.0375000000 14.4600000000
Cu 14.4600000000 7.2300000000 18.0750000000
Cu 14.4600000000 9.0375000000 19.8825000000
Cu 16.2675000000 7.2300000000 19.8825000000
Cu 16.2675000000 9.0375000000 18.0750000000
Cu 14.4600000000 7.2300000000 21.6900000000
Cu 14.4600000000 9.0375000000 23.4975000000
Cu 16.2675000000 7.2300000000 23.4975000000
Cu 16.2675000000 9.0375000000 21.6900000000
Cu 14.4600000000 7.2300000000 25.3050000000
Cu 14.4600000000 9.0375000000 27.1125000000
Cu 16.2675000000 7.2300000000 27.1125000000
Cu 16.2675000000 9.0375000000 25.3050000000
Cu 14.4600000000 10.8450000000 0.0000000000
Cu 14.4600000000 12.6525000000 1.8075000000
Cu 16.2675000000 10.8450000000 1.8075000000
Cu 16.2675000000 12.6525000000 0.0000000000
Cu 14.4600000000 10.8450000000 3.6150000000
Cu 14.4600000000 12.6525000000 5.4225000000
Cu 16.2675000000 10.8450000000 5.4225000000
Cu 16.2675000000 12.6525000000 3.6150000000
Cu 14.4600000000 10.8450000000 7.2300000000
Cu 14.4600000000 12.6525000000 9.0375000000
Cu 16.2675000000 10.8450000000 9.0375000000
Cu 16.2675000000 12.6525000000 7.2300000000
Cu 14.4600000000 10.8450000000 10.8450000000
Cu 14.4600000000 12.6525000000 12.6525000000
Cu 16.2675000000 10.8450000000 12.6525000000
Cu 16.2675000000 12.6525000000 10.8450000000
Cu 14.4600000000 10.8450000000 14.4600000000
Cu 14.4600000000 12.6525000000 16.2675000000
Cu 16.2675000000 10.8450000000 16.2675000000
Cu 16.2675000000 12.6525000000 14.4600000000
Cu 14.4600000000 10.8450000000 18.0750000000
Cu 14.4600000000 12.6525000000 19.8825000000
Cu 16.2675000000 10.8450000000 19.8825000000
Cu 16.2675000000 12.6525000000 18.0750000000
Cu 14.4600000000 10.8450000000 21.6900000000
Cu 14.4600000000 12.6525000000 23.4975000000
Cu 16.2675000000 10.8450000000 23.4975000000
Cu 16.2675000000 12.6525000000 21.6900000000
Cu 14.4600000000 10.8450000000 25.3050000000
Cu 14.4600000000 12.6525000000 27.1125000000
Cu 16.2675000000 10.8450000000 27.1125000000
Cu 16.2675000000 12.6525000000 25.3050000000
Cu 14.4600000000 14.4600000000 0.0000000000
Cu 14.4600000000 16.2675000000 1.8075000000
Cu 16.2675000000 14.4600000000 1.8075000000
Cu 16.2675000000 16.2675000000 0.0000000000
Cu 14.4600000000 14.4600000000 3.6150000000
Cu 14.4600000000 16.2675000000 5.4225000000
Cu 16.2675000000 14.4600000000 5.4225000000
Cu 16.2675000000 16.2675000000 3.6150000000
Cu 14.4600000000 14.4600000000 7.2300000000
Cu 14.4600000000 16.2675000000 9.0375000000
Cu 16.2675000000 14.4600000000 9.0375000000
Cu 16.2675000000 16.2675000000 7.2300000000
Cu 14.4600000000 14.4600000000 10.8450000000
Cu 14.4600000000 16.2675000000 12.6525000000
Cu 16.2675000000 14.4600000000 12.6525000000
Cu 16.2675000000 16.2675000000 10.8450000000
Cu 14.4600000000 14.4600000000 14.4600000000
Cu 14.4600000000 16.2675000000 16.2675000000
Cu 16.2675000000 14.4600000000 16.2675000000
Cu 16.2675000000 16.2675000000 14.4600000000
Cu 14.4600000000 14.4600000000 18.0750000000
Cu 14.4600000000 16.2675000000 19.8825000000
Cu 16.2675000000 14.4600000000 19.8825000000
Cu 16.2675000000 16.2675000000 18.0750000000
Cu 14.4600000000 14.4600000000 21.6900000000
Cu 14.4600000000 16.2675000000 23.4975000000
Cu 16.2675000000 14.4600000000 23.4975000000
Cu 16.2675000000 16.2675000000 21.6900000000
Cu 14.4600000000 14.4600000000 25.3050000000
Cu 14.4600000000 16.2675000000 27.1125000000
Cu 16.2675000000 14.4600000000 27.1125000000
Cu 16.2675000000 16.2675000000 25.3050000000
Cu 14.4600000000 18.0750000000 0.0000000000
Cu 14.4600000000 19.8825000000 1.8075000000
Cu 16.2675000000 18.0750000000 1.8075000000
Cu 16.2675000000 19.8825000000 0.0000000000
Cu 14.4600000000 18.0750000000 3.6150000000
Cu 14.4600000000 19.8825000000 5.4225000000
Cu 16.2675000000 18.0750000000 5.4225000000
Cu 16.2675000000 19.8825000000 3.6150000000
Cu 14.4600000000 18.0750000000 7.2300000000
Cu 14.4600000000 19.8825000000 9.0375000000
Cu 16.2675000000 18.0750000000 9.0375000000
Cu 16.2675000000 19.8825000000 7.2300000000
Cu 14.4600000000 18.0750000000 10.8450000000
Cu 14.4600000000 19.8825000000 12.6525000000
Cu 16.2675000000 18.0750000000 12.6525000000
Cu 16.2675000000 19.8825000000 10.8450000000
Cu 14.4600000000 18.0750000000 14.4600000000
Cu 14.4600000000 19.8825000000 16.2675000000
Cu 16.2675000000 18.0750000000 16.2675000000
Cu 16.2675000000 19.8825000000 14.4600000000
Cu 14.4600000000 18.0750000000 18.0750000000
Cu 14.4600000000 19.8825000000 19.8825000000
Cu 16.2675000000 18.0750000000 19.8825000000
Cu 16.2675000000 19.8825000000 18.0750000000
Cu 14.4600000000 18.0750000000 21.6900000000
Cu 14.4600000000 19.8825000000 23.4975000000
Cu 16.2675000000 18.0750000000 23.4975000000
Cu 16.2675000000 19.8825000000 21.6900000000
Cu 14.4600000000 18.0750000000 25.3050000000
Cu 14.4600000000 19.8825000000 27.1125000000
Cu 16.2675000000 18.0750000000 27.1125000000
Cu 16.2675000000 19.8825000000 25.3050000000
Cu 14.4600000000 21.6900000000 0.0000000000
Cu 14.4600000000 23.4975000000 1.8075000000
Cu 16.2675000000 21.6900000000 1.8075000000
Cu 16.2675000000 23.4975000000 0.0000000000
Cu 14.4600000000 21.6900000000 3.6150000000
Cu 14.4600000000 23.4975000000 5.4225000000
Cu 16.2675000000 21.6900000000 5.4225000000
Cu 16.2675000000 23.4975000000 3.6150000000
Cu 14.4600000000 21.6900000000 7.2300000000
Cu 14.4600000000 23.4975000000 9.0375000000
Cu 16.2675000000 21.6900000000 9.0375000000
Cu 16.2675000000 23.4975000000 7.2300000000
Cu 14.4600000000 21.6900000000 10.8450000000
Cu 14.4600000000 23.4975000000 12.6525000000
Cu 16.2675000000 21.6900000000 12.6525000000
Cu 16.2675000000 23.4975000000 10.8450000000
Cu 14.4600000000 21.6900000000 14.4600000000
Cu 14.4600000000 23.4975000000 16.2675000000
Cu 16.2675000000 21.6900000000 16.2675000000
Cu 16.2675000000 23.4975000000 14.4600000000
Cu 14.4600000000 21.6900000000 18.0750000000
Cu 14.4600000000 23.4975000000 19.8825000000
Cu 16.2675000000 21.6900000000 19.8825000000
Cu 16.2675000000 23.4975000000 18.0750000000
Cu 14.4600000000 21.6900000000 21.6900000000
Cu 14.4600000000 23.4975000000 23.4975000000
Cu 16.2675000000 21.6900000000 23.4975000000
Cu 16.2675000000 23.4975000000 21.6900000000
Cu 14.4600000000 21.6900000000 25.3050000000
Cu 14.4600000000 23.4975000000 27.1125000000
Cu 16.2675000000 21.6900000000 27.1125000000
Cu 16.2675000000 23.4975000000 25.3050000000
Cu 14.4600000000 25.3050000000 0.0000000000
Cu 14.4600000000 27.1125000000 1.8075000000
Cu 16.2675000000 25.3050000000 1.8075000000
Cu 16.2675000000 27.1125000000 0.0000000000
Cu 14.4600000000 25.3050000000 3.6150000000
Cu 14.4600000000 27.1125000000 5.4225000000
Cu 16.2675000000 25.3050000000 5.4225000000
Cu 16.2675000000 27.1125000000 3.6150000000
Cu 14.4600000000 25.3050000000 7.2300000000
Cu 14.4600000000 27.1125000000 9.0375000000
Cu 16.2675000000 25.3050000000 9.0375000000
Cu 16.2675000000 27.1125000000 7.2300000000
Cu 14.4600000000 25.3050000000 10.8450000000
Cu 14.4600000000 27.1125000000 12.6525000000
Cu 16.2675000000 25.3050000000 12.6525000000
Cu 16.2675000000 27.1125000000 10.8450000000
Cu 14.4600000000 25.3050000000 14.4600000000
Cu 14.4600000000 27.1125000000 16.2675000000
Cu 16.2675000000 25.3050000000 16.2675000000
Cu 16.2675000000 27.1125000000 14.4600000000
Cu 14.4600000000 25.3050000000 18.0750000000
Cu 14.4600000000 27.1125000000 19.8825000000
Cu 16.2675000000 25.3050000000 19.8825000000
Cu 16.2675000000 27.1125000000 18.0750000000
Cu 14.4600000000 25.3050000000 21.6900000000
Cu 14.4600000000 27.1125000000 23.4975000000
Cu 16.2675000000 25.3050000000 23.4975000000
Cu 16.2675000000 27.1125000000 21.6900000000
Cu 14.4600000000 25.3050000000 25.3050000000
Cu 14.4600000000 27.1125000000 27.1125000000
Cu 16.2675000000 25.3050000000 27.1125000000
Cu 16.2675000000 27.1125000000 25.3050000000
Cu 18.0750000000 0.0000000000 0.0000000000
Cu 18.0750000000 1.8075000000 1.8075000000
Cu 19.8825000000 0.0000000000 1.8075000000
Cu 19.8825000000 1.8075000000 0.0000000000
Cu 18.0750000000 0.0000000000 3.6150000000
Cu 18.0750000000 1.8075000000 5.4225000000
Cu 19.8825000000 0.0000000000 5.4225000000
Cu 19.8825000000 1.8075000000 3.6150000000
Cu 18.0750000000 0.0000000000 7.2300000000
Cu 18.0750000000 1.8075000000 9.0375000000
Cu 19.8825000000 0.0000000000 9.0375000000
Cu 19.8825000000 1.8075000000 7.2300000000
Cu 18.0750000000 0.0000000000 10.8450000000
Cu 18.0750000000 1.8075000000 12.6525000000
Cu 19.8825000000 0.0000000000 12.6525000000
Cu 19.8825000000 1.8075000000 10.8450000000
Cu 18.0750000000 0.0000000000 14.4600000000
Cu 18.0750000000 1.8075000000 16.2675000000
Cu 19.8825000000 0.0000000000 16.2675000000
Cu 19.8825000000 1.8075000000 14.4600000000
Cu 18.0750000000 0.0000000000 18.0750000000
Cu 18.0750000000 1.8075000000 19.8825000000
Cu 19.8825000000 0.0000000000 19.8825000000
Cu 19.8825000000 1.8075000000 18.0750000000
Cu 18.0750000000 0.0000000000 21.6900000000
Cu 18.0750000000 1.8075000000 23.4975000000
Cu 19.8825000000 0.0000000000 23.4975000000
Cu 19.8825000000 1.8075000000 21.6900000000
Cu 18.0750000000 0.0000000000 25.3050000000
Cu 18.0750000000 1.8075000000 27.1125000000
Cu 19.8825000000 0.0000000000 27.1125000000
Cu 19.8825000000 1.8075000000 25.3050000000
Cu 18.0750000000 3.6150000000 0.0000000000
Cu 18.0750000000 5.4225000000 1.8075000000
Cu 19.8825000000 3.6150000000 1.8075000000
Cu 19.8825000000 5.4225000000 0.0000000000
Cu 18.0750000000 3.6150000000 3.6150000000
Cu 18.0750000000 5.4225000000 5.4225000000
Cu 19.8825000000 3.6150000000 5.4225000000
Cu 19.8825000000 5.4225000000 3.6150000000
Cu 18.0750000000 3.6150000000 7.2300000000
Cu 18.0750000000 5.4225000000 9.0375000000
Cu 19.8825000000 3.6150000000 9.0375000000
Cu 19.8825000000 5.4225000000 7.2300000000
Cu 18.0750000000 3.6150000000 10.8450000000
Cu 18.0750000000 5.4225000000 12.6525000000
Cu 19.8825000000 3.6150000000 12.6525000000
Cu 19.8825000000 5.4225000000 10.8450000000
Cu 18.0750000000 3.6150000000 14.4600000000
Cu 18.0750000000 5.4225000000 16.2675000000
Cu 19.8825000000 3.6150000000 16.2675000000
Cu 19.8825000000 5.4225000000 14.4600000000
Cu 18.0750000000 3.6150000000 18.0750000000
Cu 18.0750000000 5.4225000000 19.8825000000
Cu 19.8825000000 3.6150000000 19.8825000000
Cu 19.8825000000 5.4225000000 18.0750000000
Cu 18.0750000000 3.6150000000 21.6900000000
Cu 18.0750000000 5.4225000000 23.4975000000
Cu 19.8825000000 3.6150000000 23.4975000000
Cu 19.8825000000 5.4225000000 21.6900000000
Cu 18.0750000000 3.6150000000 25.3050000000
Cu 18.0750000000 5.4225000000 27.1125000000
Cu 19.8825000000 3.6150000000 27.1125000000
Cu 19.8825000000 5.4225000000 25.3050000000
Cu 18.0750000000 7.2300000000 0.0000000000
Cu 18.0750000000 9.0375000000 1.8075000000
Cu 19.8825000000 7.2300000000 1.8075000000
Cu 19.8825000000 9.0375000000 0.0000000000
Cu 18.0750000000 7.2300000000 3.6150000000
Cu 18.0750000000 9.0375000000 5.4225000000
Cu 19.8825000000 7.2300000000 5.4225000000
Cu 19.8825000000 9.0375000000 3.6150000000
Cu 18.0750000000 7.2300000000 7.2300000000
Cu 18.0750000000 9.0375000000 9.0375000000
Cu 19.8825000000 7.2300000000 9.0375000000
Cu 19.8825000000 9.0375000000 7.2300000000
Cu 18.0750000000 7.2300000000 10.8450000000
Cu 18.0750000000 9.0375000000 12.6525000000
Cu 19.8825000000 7.2300000000 12.6525000000
Cu 19.8825000000 9.0375000000 10.8450000000
Cu 18.0750000000 7.2300000000 14.4600000000
Cu 18.0750000000 9.0375000000 16.2675000000
Cu 19.8825000000 7.2300000000 16.2675000000
Cu 19.8825000000 9.0375000000 14.4600000000
Cu 18.0750000000 7.2300000000 18.0750000000
Cu 18.0750000000 9.0375000000 19.8825000000
Cu 19.8825000000 7.2300000000 19.8825000000
Cu 19.8825000000 9.0375000000 18.0750000000
Cu 18.0750000000 7.2300000000 21.6900000000
Cu 18.0750000000 9.0375000000 23.4975000000
Cu 19.8825000000 7.2300000000 23.4975000000
Cu 19.8825000000 9.0375000000 21.6900000000
Cu 18.0750000000 7.2300000000 25.3050000000
Cu 18.0750000000 9.0375000000 27.1125000000
Cu 19.8825000000 7.2300000000 27.1125000000
Cu 19.8825000000 9.0375000000 25.3050000000
Cu 18.0750000000 10.8450000000 0.0000000000
Cu 18.0750000000 12.6525000000 1.8075000000
Cu 19.8825000000 10.8450000000 1.8075000000
Cu 19.8825000000 12.6525000000 0.0000000000
Cu 18.0750000000 10.8450000000 3.6150000000
Cu 18.0750000000 12.6525000000 5.4225000000
Cu 19.8825000000 10.8450000000 5.4225000000
Cu 19.8825000000 12.6525000000 3.6150000000
Cu 18.0750000000 10.8450000000 7.2300000000
Cu 18.0750000000 12.6525000000 9.0375000000
Cu 19.8825000000 10.8450000000 9.0375000000
Cu 19.8825000000 12.6525000000 7.2300000000
Cu 18.0750000000 10.8450000000 10.8450000000
Cu 18.0750000000 12.6525000000 12.6525000000
Cu 19.8825000000 10.8450000000 12.6525000000
Cu 19.8825000000 12.6525000000 10.8450000000
Cu 18.0750000000 10.8450000000 14.4600000000
Cu 18.0750000000 12.6525000000 16.2675000000
Cu 19.8825000000 10.8450000000 16.2675000000
Cu 19.8825000000 12.6525000000 14.4600000000
Cu 18.0750000000 10.8450000000 18.0750000000
Cu 18.0750000000 12.6525000000 19.8825000000
Cu 19.8825000000 10.8450000000 19.8825000000
Cu 19.8825000000 12.6525000000 18.0750000000
Cu 18.0750000000 10.8450000000 21.6900000000
Cu 18.0750000000 12.6525000000 23.4975000000
Cu 19.8825000000 10.8450000000 23.4975000000
Cu 19.8825000000 12.6525000000 21.6900000000
Cu 18.0750000000 10.8450000000 25.3050000000
Cu 18.0750000000 12.6525000000 27.1125000000
Cu 19.8825000000 10.8450000000 27.1125000000
Cu 19.8825000000 12.6525000000 25.3050000000
Cu 18.0750000000 14.4600000000 0.0000000000
Cu 18.0750000000 16.2675000000 1.8075000000
Cu 19.8825000000 14.4600000000 1.8075000000
Cu 19.8825000000 16.2675000000 0.0000000000
Cu 18.0750000000 14.4600000000 3.6150000000
Cu 18.0750000000 16.2675000000 5.4225000000
Cu 19.8825000000 14.4600000000 5.4225000000
Cu 19.8825000000 16.2675000000 3.6150000000
Cu 18.0750000000 14.4600000000 7.2300000000
Cu 18.0750000000 16.2675000000 9.0375000000
Cu 19.8825000000 14.4600000000 9.0375000000
Cu 19.8825000000 16.2675000000 7.2300000000
Cu 18.0750000000 14.4600000000 10.8450000000
Cu 18.0750000000 16.2675000000 12.6525000000
Cu 19.8825000000 14.4600000000 12.6525000000
Cu 19.8825000000 16.2675000000 10.8450000000
Cu 18.0750000000 14.4600000000 14.4600000000
Cu 18.0750000000 16.2675000000 16.2675000000
Cu 19.8825000000 14.4600000000 16.2675000000
Cu 19.8825000000 16.2675000000 14.4600000000
Cu 18.0750000000 14.4600000000 18.0750000000
Cu 18.0750000000 16.2675000000 19.8825000000
Cu 19.8825000000 14.4600000000 19.8825000000
Cu 19.8825000000 16.2675000000 18.0750000000
Cu 18.0750000000 14.4600000000 21.6900000000
Cu 18.0750000000 16.2675000000 23.4975000000
Cu 19.8825000000 14.4600000000 23.4975000000
Cu 19.8825000000 16.2675000000 21.6900000000
Cu 18.0750000000 14.4600000000 25.3050000000
Cu 18.0750000000 16.2675000000 27.1125000000
Cu 19.8825000000 14.4600000000 27.1125000000
Cu 19.8825000000 16.2675000000 25.3050000000
Cu 18.0750000000 18.0750000000 0.0000000000
Cu 18.0750000000 19.8825000000 1.8075000000
Cu 19.8825000000 18.0750000000 1.8075000000
Cu 19.8825000000 19.8825000000 0.0000000000
Cu 18.0750000000 18.0750000000 3.6150000000
Cu 18.0750000000 19.8825000000 5.4225000000
Cu 19.8825000000 18.0750000000 5.4225000000
Cu 19.8825000000 19.8825000000 3.6150000000
Cu 18.0750000000 18.0750000000 7.2300000000
Cu 18.0750000000 19.8825000000 9.0375000000
Cu 19.8825000000 18.0750000000 9.0375000000
Cu 19.8825000000 19.8825000000 7.2300000000
Cu 18.0750000000 18.0750000000 10.8450000000
Cu 18.0750000000 19.8825000000 12.6525000000
Cu 19.8825000000 18.0750000000 12.6525000000
Cu 19.8825000000 19.8825000000 10.8450000000
Cu 18.0750000000 18.0750000000 14.4600000000
Cu 18.0750000000 19.8825000000 16.2675000000
Cu 19.8825000000 18.0750000000 16.2675000000
Cu 19.8825000000 19.8825000000 14.4600000000
Cu 18.0750000000 18.0750000000 18.0750000000
Cu 18.0750000000 19.8825000000 19.8825000000
Cu 19.8825000000 18.0750000000 19.8825000000
Cu 19.8825000000 19.8825000000 18.0750000000
Cu 18.0750000000 18.0750000000 21.6900000000
Cu 18.0750000000 19.8825000000 23.4975000000
Cu 19.8825000000 18.0750000000 23.4975000000
Cu 19.8825000000 19.8825000000 21.6900000000
Cu 18.0750000000 18.0750000000 25.3050000000
Cu 18.0750000000 19.8825000000 27.1125000000
Cu 19.8825000000 18.0750000000 27.1125000000
Cu 19.8825000000 19.8825000000 25.3050000000
Cu 18.0750000000 21.6900000000 0.0000000000
Cu 18.0750000000 23.4975000000 1.8075000000
Cu 19.8825000000 21.6900000000 1.8075000000
Cu 19.8825000000 23.4975000000 0.0000000000
Cu 18.0750000000 21.6900000000 3.6150000000
Cu 18.0750000000 23.4975000000 5.4225000000
Cu 19.8825000000 21.6900000000 5.4225000000
Cu 19.8825000000 23.4975000000 3.6150000000
Cu 18.0750000000 21.6900000000 7.2300000000
Cu 18.0750000000 23.4975000000 9.0375000000
Cu 19.8825000000 21.6900000000 9.0375000000
Cu 19.8825000000 23.4975000000 7.2300000000
Cu 18.0750000000 21.6900000000 10.8450000000
Cu 18.0750000000 23.4975000000 12.6525000000
Cu 19.8825000000 21.6900000000 12.6525000000
Cu 19.8825000000 23.4975000000 10.8450000000
Cu 18.0750000000 21.6900000000 14.4600000000
Cu 18.0750000000 23.4975000000 16.2675000000
Cu 19.8825000000 21.6900000000 16.2675000000
Cu 19.8825000000 23.4975000000 14.4600000000
Cu 18.0750000000 21.6900000000 18.0750000000
Cu 18.0750000000 23.4975000000 19.8825000000
Cu 19.8825000000 21.6900000000 19.8825000000
Cu 19.8825000000 23.4975000000 18.0750000000
Cu 18.0750000000 21.6900000000 21.6900000000
Cu 18.0750000000 23.4975000000 23.4975000000
Cu 19.8825000000 21.6900000000 23.4975000000
Cu 19.8825000000 23.4975000000 21.6900000000
Cu 18.0750000000 21.6900000000 25.3050000000
Cu 18.0750000000 23.4975000000 27.1125000000
Cu 19.8825000000 21.6900000000 27.1125000000
Cu 19.8825000000 23.4975000000 25.3050000000
Cu 18.0750000000 25.3050000000 0.0000000000
Cu 18.0750000000 27.1125000000 1.8075000000
Cu 19.8825000000 25.3050000000 1.8075000000
Cu 19.8825000000 27.1125000000 0.0000000000
Cu 18.0750000000 25.3050000000 3.6150000000
Cu 18.0750000000 27.1125000000 5.4225000000
Cu 19.8825000000 25.3050000000 5.4225000000
Cu 19.8825000000 27.1125000000 3.6150000000
Cu 18.0750000000 25.3050000000 7.2300000000
Cu 18.0750000000 27.1125000000 9.0375000000
Cu 19.8825000000 25.3050000000 9.0375000000
Cu 19.8825000000 27.1125000000 7.2300000000
Cu 18.0750000000 25.3050000000 10.8450000000
Cu 18.0750000000 27.1125000000 12.6525000000
Cu 19.8825000000 25.3050000000 12.6525000000
Cu 19.8825000000 27.1125000000 10.8450000000
Cu 18.0750000000 25.3050000000 14.4600000000
Cu 18.0750000000 27.1125000000 16.2675000000
Cu 19.8825000000 25.3050000000 16.2675000000
Cu 19.8825000000 27.1125000000 14.4600000000
Cu 18.0750000000 25.3050000000 18.0750000000
Cu 18.0750000000 27.1125000000 19.8825000000
Cu 19.8825000000 25.3050000000 19.8825000000
Cu 19.8825000000 27.1125000000 18.0750000000
Cu 18.0750000000 25.3050000000 21.6900000000
Cu 18.0750000000 27.1125000000 23.4975000000
Cu 19.8825000000 25.3050000000 23.4975000000
Cu 19.8825000000 27.1125000000 21.6900000000
Cu 18.0750000000 25.3050000000 25.3050000000
Cu 18.0750000000 27.1125000000 27.1125000000
Cu 19.8825000000 25.3050000000 27.1125000000
Cu 19.8825000000 27.1125000000 25.3050000000
Cu 21.6900000000 0.0000000000 0.0000000000
Cu 21.6900000000 1.8075000000 1.8075000000
Cu 23.4975000000 0.0000000000 1.8075000000
Cu 23.4975000000 1.8075000000 0.0000000000
Cu 21.6900000000 0.0000000000 3.6150000000
Cu 21.6900000000 1.8075000000 5.4225000000
Cu 23.4975000000 0.0000000000 5.4225000000
Cu 23.4975000000 1.8075000000 3.6150000000
Cu 21.6900000000 0.0000000000 7.2300000000
Cu 21.6900000000 1.8075000000 9.0375000000
Cu 23.4975000000 0.0000000000 9.0375000000
Cu 23.4975000000 1.8075000000 7.2300000000
Cu 21.6900000000 0.0000000000 10.8450000000
Cu 21.6900000000 1.8075000000 12.6525000000
Cu 23.4975000000 0.0000000000 12.6525000000
Cu 23.4975000000 1.8075000000 10.8450000000
Cu 21.6900000000 0.0000000000 14.4600000000
Cu 21.6900000000 1.8075000000 16.2675000000
Cu 23.4975000000 0.0000000000 16.2675000000
Cu 23.4975000000 1.8075000000 14.4600000000
Cu 21.6900000000 0.0000000000 18.0750000000
Cu 21.6900000000 1.8075000000 19.8825000000
Cu 23.4975000000 0.0000000000 19.8825000000
Cu 23.4975000000 1.8075000000 18.0750000000
Cu 21.6900000000 0.0000000000 21.6900000000
Cu 21.6900000000 1.8075000000 23.4975000000
Cu 23.4975000000 0.0000000000 23.4975000000
Cu 23.4975000000 1.8075000000 21.6900000000
Cu 21.6900000000 0.0000000000 25.3050000000
Cu 21.6900000000 1.8075000000 27.1125000000
Cu 23.4975000000 0.0000000000 27.1125000000
Cu 23.4975000000 1.8075000000 25.3050000000
Cu 21.6900000000 3.6150000000 0.0000000000
Cu 21.6900000000 5.4225000000 1.8075000000
Cu 23.4975000000 3.6150000000 1.8075000000
Cu 23.4975000000 5.4225000000 0.0000000000
Cu 21.6900000000 3.6150000000 3.6150000000
Cu 21.6900000000 5.4225000000 5.4225000000
Cu 23.4975000000 3.6150000000 5.4225000000
Cu 23.4975000000 5.4225000000 3.6150000000
Cu 21.6900000000 3.6150000000 7.2300000000
Cu 21.6900000000 5.4225000000 9.0375000000
Cu 23.4975000000 3.6150000000 9.0375000000
Cu 23.4975000000 5.4225000000 7.2300000000
Cu 21.6900000000 3.6150000000 10.8450000000
Cu 21.6900000000 5.4225000000 12.6525000000
Cu 23.4975000000 3.6150000000 12.6525000000
Cu 23.4975000000 5.4225000000 10.8450000000
Cu 21.6900000000 3.6150000000 14.4600000000
Cu 21.6900000000 5.4225000000 16.2675000000
Cu 23.4975000000 3.6150000000 16.2675000000
Cu 23.4975000000 5.4225000000 14.4600000000
Cu 21.6900000000 3.6150000000 18.0750000000
Cu 21.6900000000 5.4225000000 19.8825000000
Cu 23.4975000000 3.6150000000 19.8825000000
Cu 23.4975000000 5.4225000000 18.0750000000
Cu 21.6900000000 3.6150000000 21.6900000000
Cu 21.6900000000 5.4225000000 23.4975000000
Cu 23.4975000000 3.6150000000 23.4975000000
Cu 23.4975000000 5.4225000000 21.6900000000
Cu 21.6900000000 3.6150000000 25.3050000000
Cu 21.6900000000 5.4225000000 27.1125000000
Cu 23.4975000000 3.6150000000 27.1125000000
Cu 23.4975000000 5.4225000000 25.3050000000
Cu 21.6900000000 7.2300000000 0.0000000000
Cu 21.6900000000 9.0375000000 1.8075000000
Cu 23.4975000000 7.2300000000 1.8075000000
Cu 23.4975000000 9.0375000000 0.0000000000
Cu 21.6900000000 7.2300000000 3.6150000000
Cu 21.6900000000 9.0375000000 5.4225000000
Cu 23.4975000000 7.2300000000 5.4225000000
Cu 23.4975000000 9.0375000000 3.6150000000
Cu 21.6900000000 7.2300000000 7.2300000000
Cu 21.6900000000 9.0375000000 9.0375000000
Cu 23.4975000000 7.2300000000 9.0375000000
Cu 23.4975000000 9.0375000000 7.2300000000
Cu 21.6900000000 7.2300000000 10.8450000000
Cu 21.6900000000 9.0375000000 12.6525000000
Cu 23.4975000000 7.2300000000 12.6525000000
Cu 23.4975000000 9.0375000000 10.8450000000
Cu 21.6900000000 7.2300000000 14.4600000000
Cu 21.6900000000 9.0375000000 16.2675000000
Cu 23.4975000000 7.2300000000 16.2675000000
Cu 23.4975000000 9.0375000000 14.4600000000
Cu 21.6900000000 7.2300000000 18.0750000000
Cu 21.6900000000 9.0375000000 19.8825000000
Cu 23.4975000000 7.2300000000 19.8825000000
Cu 23.4975000000 9.0375000000 18.0750000000
Cu 21.6900000000 7.2300000000 21.6900000000
Cu 21.6900000000 9.0375000000 23.4975000000
Cu 23.4975000000 7.2300000000 23.4975000000
Cu 23.4975000000 9.0375000000 21.6900000000
Cu 21.6900000000 7.2300000000 25.3050000000
Cu 21.6900000000 9.0375000000 27.1125000000
Cu 23.4975000000 7.2300000000 27.1125000000
Cu 23.4975000000 9.0375000000 25.3050000000
Cu 21.6900000000 10.8450000000 0.0000000000
Cu 21.6900000000 12.6525000000 1.8075000000
Cu 23.4975000000 10.8450000000 1.8075000000
Cu 23.4975000000 12.6525000000 0.0000000000
Cu 21.6900000000 10.8450000000 3.6150000000
Cu 21.6900000000 12.6525000000 5.4225000000
Cu 23.4975000000 10.8450000000 5.4225000000
Cu 23.4975000000 12.6525000000 3.6150000000
Cu 21.6900000000 10.8450000000 7.2300000000
Cu 21.6900000000 12.6525000000 9.0375000000
Cu 23.4975000000 10.8450000000 9.0375000000
Cu 23.4975000000 12.6525000000 7.2300000000
Cu 21.6900000000 10.8450000000 10.8450000000
Cu 21.6900000000 12.6525000000 12.6525000000
Cu 23.4975000000 10.8450000000 12.6525000000
Cu 23.4975000000 12.6525000000 10.8450000000
Cu 21.6900000000 10.8450000000 14.4600000000
Cu 21.6900000000 12.6525000000 16.2675000000
Cu 23.4975000000 10.8450000000 16.2675000000
Cu 23.4975000000 12.6525000000 14.4600000000
Cu 21.6900000000 10.8450000000 18.0750000000
Cu 21.6900000000 12.6525000000 19.8825000000
Cu 23.4975000000 10.8450000000 19.8825000000
Cu 23.4975000000 12.6525000000 18.0750000000
Cu 21.6900000000 10.8450000000 21.6900000000
Cu 21.6900000000 12.6525000000 23.4975000000
Cu 23.4975000000 10.8450000000 23.4975000000
Cu 23.4975000000 12.6525000000 21.6900000000
Cu 21.6900000000 10.8450000000 25.3050000000
Cu 21.6900000000 12.6525000000 27.1125000000
Cu 23.4975000000 10.8450000000 27.1125000000
Cu 23.4975000000 12.6525000000 25.3050000000
Cu 21.6900000000 14.4600000000 0.0000000000
Cu 21.6900000000 16.2675000000 1.8075000000
Cu 23.4975000000 14.4600000000 1.8075000000
Cu 23.4975000000 16.2675000000 0.0000000000
Cu 21.6900000000 14.4600000000 3.6150000000
Cu 21.6900000000 16.2675000000 5.4225000000
Cu 23.4975000000 14.4600000000 5.4225000000
Cu 23.4975000000 16.2675000000 3.6150000000
Cu 21.6900000000 14.4600000000 7.2300000000
Cu 21.6900000000 16.2675000000 9.0375000000
Cu 23.4975000000 14.4600000000 9.0375000000
Cu 23.4975000000 16.2675000000 7.2300000000
Cu 21.6900000000 14.4600000000 10.8450000000
Cu 21.6900000000 16.2675000000 12.6525000000
Cu 23.4975000000 14.4600000000 12.6525000000
Cu 23.4975000000 16.2675000000 10.8450000000
Cu 21.6900000000 14.4600000000 14.4600000000
Cu 21.6900000000 16.2675000000 16.2675000000
Cu 23.4975000000 14.4600000000 16.2675000000
Cu 23.4975000000 16.2675000000 14.4600000000
Cu 21.6900000000 14.4600000000 18.0750000000
Cu 21.6900000000 16.2675000000 19.8825000000
Cu 23.4975000000 14.4600000000 19.8825000000
Cu 23.4975000000 16.2675000000 18.0750000000
Cu 21.6900000000 14.4600000000 21.6900000000
Cu 21.6900000000 16.2675000000 23.4975000000
Cu 23.4975000000 14.4600000000 23.4975000000
Cu 23.4975000000 16.2675000000 21.6900000000
Cu 21.6900000000 14.4600000000 25.3050000000
Cu 21.6900000000 16.2675000000 27.1125000000
Cu 23.4975000000 14.4600000000 27.1125000000
Cu 23.4975000000 16.2675000000 25.3050000000
Cu 21.6900000000 18.0750000000 0.0000000000
Cu 21.6900000000 19.8825000000 1.8075000000
Cu 23.4975000000 18.0750000000 1.8075000000
Cu 23.4975000000 19.8825000000 0.0000000000
Cu 21.6900000000 18.0750000000 3.6150000000
Cu 21.6900000000 19.8825000000 5.4225000000
Cu 23.4975000000 18.0750000000 5.4225000000
Cu 23.4975000000 19.8825000000 3.6150000000
Cu 21.6900000000 18.0750000000 7.2300000000
Cu 21.6900000000 19.8825000000 9.0375000000
Cu 23.4975000000 18.0750000000 9.0375000000
Cu 23.4975000000 19.8825000000 7.2300000000
Cu 21.6900000000 18.0750000000 10.8450000000
Cu 21.6900000000 19.8825000000 12.6525000000
Cu 23.4975000000 18.0750000000 12.6525000000
Cu 23.4975000000 19.8825000000 10.8450000000
Cu 21.6900000000 18.0750000000 14.4600000000
Cu 21.6900000000 19.8825000000 16.2675000000
Cu 23.4975000000 18.0750000000 16.2675000000
Cu 23.4975000000 19.8825000000 14.4600000000
Cu 21.6900000000 18.0750000000 18.0750000000
Cu 21.6900000000 19.8825000000 19.8825000000
Cu 23.4975000000 18.0750000000 19.8825000000
Cu 23.4975000000 19.8825000000 18.0750000000
Cu 21.6900000000 18.0750000000 21.6900000000
Cu 21.6900000000 19.8825000000 23.4975000000
Cu 23.4975000000 18.0750000000 23.4975000000
Cu 23.4975000000 19.8825000000 21.6900000000
Cu 21.6900000000 18.0750000000 25.3050000000
Cu 21.6900000000 19.8825000000 27.1125000000
Cu 23.4975000000 18.0750000000 27.1125000000
Cu 23.4975000000 19.8825000000 25.3050000000
Cu 21.6900000000 21.6900000000 0.0000000000
Cu 21.6900000000 23.4975000000 1.8075000000
Cu 23.4975000000 21.6900000000 1.8075000000
Cu 23.4975000000 23.4975000000 0.0000000000
Cu 21.6900000000 21.6900000000 3.6150000000
Cu 21.6900000000 23.4975000000 5.4225000000
Cu 23.4975000000 21.6900000000 5.4225000000
Cu 23.4975000000 23.4975000000 3.6150000000
Cu 21.6900000000 21.6900000000 7.2300000000
Cu 21.6900000000 23.4975000000 9.0375000000
Cu 23.4975000000 21.6900000000 9.0375000000
Cu 23.4975000000 23.4975000000 7.2300000000
Cu 21.6900000000 21.6900000000 10.8450000000
Cu 21.6900000000 23.4975000000 12.6525000000
Cu 23.4975000000 21.6900000000 12.6525000000
Cu 23.4975000000 23.4975000000 10.8450000000
Cu 21.6900000000 21.6900000000 14.4600000000
Cu 21.6900000000 23.4975000000 16.2675000000
Cu 23.4975000000 21.6900000000 16.2675000000
Cu 23.4975000000 23.4975000000 14.4600000000
Cu 21.6900000000 21.6900000000 18.0750000000
Cu 21.6900000000 23.4975000000 19.8825000000
Cu 23.4975000000 21.6900000000 19.8825000000
Cu 23.4975000000 23.4975000000 18.0750000000
Cu 21.6900000000 21.6900000000 21.6900000000
Cu 21.6900000000 23.4975000000 23.4975000000
Cu 23.4975000000 21.6900000000 23.4975000000
Cu 23.4975000000 23.4975000000 21.6900000000
Cu 21.6900000000 21.6900000000 25.3050000000
Cu 21.6900000000 23.4975000000 27.1125000000
Cu 23.4975000000 21.6900000000 27.1125000000
Cu 23.4975000000 23.4975000000 25.3050000000
Cu 21.6900000000 25.3050000000 0.0000000000
Cu 21.6900000000 27.1125000000 1.8075000000
Cu 23.4975000000 25.3050000000 1.8075000000
Cu 23.4975000000 27.1125000000 0.0000000000
Cu 21.6900000000 25.3050000000 3.6150000000
Cu 21.6900000000 27.1125000000 5.4225000000
Cu 23.4975000000 25.3050000000 5.4225000000
Cu 23.4975000000 27.1125000000 3.6150000000
Cu 21.6900000000 25.3050000000 7.2300000000
Cu 21.6900000000 27.1125000000 9.0375000000
Cu 23.4975000000 25.3050000000 9.0375000000
Cu 23.4975000000 27.1125000000 7.2300000000
Cu 21.6900000000 25.3050000000 10.8450000000
Cu 21.6900000000 27.1125000000 12.6525000000
Cu 23.4975000000 25.3050000000 12.6525000000
Cu 23.4975000000 27.1125000000 10.8450000000
Cu 21.6900000000 25.3050000000 14.4600000000
Cu 21.6900000000 27.1125000000 16.2675000000
Cu 23.4975000000 25.3050000000 16.2675000000
Cu 23.4975000000 27.1125000000 14.4600000000
Cu 21.6900000000 25.3050000000 18.0750000000
Cu 21.6900000000 27.1125000000 19.8825000000
Cu 23.4975000000 25.3050000000 19.8825000000
Cu 23.4975000000 27.1125000000 18.0750000000
Cu 21.6900000000 25.3050000000 21.6900000000
Cu 21.6900000000 27.1125000000 23.4975000000
Cu 23.4975000000 25.3050000000 23.4975000000
Cu 23.4975000000 27.1125000000 21.6900000000
Cu 21.6900000000 25.3050000000 25.3050000000
Cu 21.6900000000 27.1125000000 27.1125000000
Cu 23.4975000000 25.3050000000 27.1125000000
Cu 23.4975000000 27.1125000000 25.3050000000
Cu 25.3050000000 0.0000000000 0.0000000000
Cu 25.3050000000 1.8075000000 1.8075000000
Cu 27.1125000000 0.0000000000 1.8075000000
Cu 27.1125000000 1.8075000000 0.0000000000
Cu 25.3050000000 0.0000000000 3.6150000000
Cu 25.3050000000 1.8075000000 5.4225000000
Cu 27.1125000000 0.0000000000 5.4225000000
Cu 27.1125000000 1.8075000000 3.6150000000
Cu 25.3050000000 0.0000000000 7.2300000000
Cu 25.3050000000 1.8075000000 9.0375000000
Cu 27.1125000000 0.0000000000 9.0375000000
Cu 27.1125000000 1.8075000000 7.2300000000
Cu 25.3050000000 0.0000000000 10.8450000000
Cu 25.3050000000 1.8075000000 12.6525000000
Cu 27.1125000000 0.0000000000 12.6525000000
Cu 27.1125000000 1.8075000000 10.8450000000
Cu 25.3050000000 0.0000000000 14.4600000000
Cu 25.3050000000 1.8075000000 16.2675000000
Cu 27.1125000000 0.0000000000 16.2675000000
Cu 27.1125000000 1.8075000000 14.4600000000
Cu 25.3050000000 0.0000000000 18.0750000000
Cu 25.3050000000 1.8075000000 19.8825000000
Cu 27.1125000000 0.0000000000 19.8825000000
Cu 27.1125000000 1.8075000000 18.0750000000
Cu 25.3050000000 0.0000000000 21.6900000000
Cu 25.3050000000 1.8075000000 23.4975000000
Cu 27.1125000000 0.0000000000 23.4975000000
Cu 27.1125000000 1.8075000000 21.6900000000
Cu 25.3050000000 0.0000000000 25.3050000000
Cu 25.3050000000 1.8075000000 27.1125000000
Cu 27.1125000000 0.0000000000 27.1125000000
Cu 27.1125000000 1.8075000000 25.3050000000
Cu 25.3050000000 3.6150000000 0.0000000000
Cu 25.3050000000 5.4225000000 1.8075000000
Cu 27.1125000000 3.6150000000 1.8075000000
Cu 27.1125000000 5.4225000000 0.0000000000
Cu 25.3050000000 3.6150000000 3.6150000000
Cu 25.3050000000 5.4225000000 5.4225000000
Cu 27.1125000000 3.6150000000 5.4225000000
Cu 27.1125000000 5.4225000000 3.6150000000
Cu 25.3050000000 3.6150000000 7.2300000000
Cu 25.3050000000 5.4225000000 9.0375000000
Cu 27.1125000000 3.6150000000 9.0375000000
Cu 27.1125000000 5.4225000000 7.2300000000
Cu 25.3050000000 3.6150000000 10.8450000000
Cu 25.3050000000 5.4225000000 12.6525000000
Cu 27.1125000000 3.6150000000 12.6525000000
Cu 27.1125000000 5.4225000000 10.8450000000
Cu 25.3050000000 3.6150000000 14.4600000000
Cu 25.3050000000 5.4225000000 16.2675000000
Cu 27.1125000000 3.6150000000 16.2675000000
Cu 27.1125000000 5.4225000000 14.4600000000
Cu 25.3050000000 3.6150000000 18.0750000000
Cu 25.3050000000 5.4225000000 19.8825000000
Cu 27.1125000000 3.6150000000 19.8825000000
Cu 27.1125000000 5.4225000000 18.0750000000
Cu 25.3050000000 3.6150000000 21.6900000000
Cu 25.3050000000 5.4225000000 23.4975000000
Cu 27.1125000000 3.6150000000 23.4975000000
Cu 27.1125000000 5.4225000000 21.6900000000
Cu 25.3050000000 3.6150000000 25.3050000000
Cu 25.3050000000 5.4225000000 27.1125000000
Cu 27.1125000000 3.6150000000 27.1125000000
Cu 27.1125000000 5.4225000000 25.3050000000
Cu 25.3050000000 7.2300000000 0.0000000000
Cu 25.3050000000 9.0375000000 1.8075000000
Cu 27.1125000000 7.2300000000 1.8075000000
Cu 27.1125000000 9.0375000000 0.0000000000
Cu 25.3050000000 7.2300000000 3.6150000000
Cu 25.3050000000 9.0375000000 5.4225000000
Cu 27.1125000000 7.2300000000 5.4225000000
Cu 27.1125000000 9.0375000000 3.6150000000
Cu 25.3050000000 7.2300000000 7.2300000000
Cu 25.3050000000 9.0375000000 9.0375000000
Cu 27.1125000000 7.2300000000 9.0375000000
Cu 27.1125000000 9.0375000000 7.2300000000
Cu 25.3050000000 7.2300000000 10.8450000000
Cu 25.3050000000 9.0375000000 12.6525000000
Cu 27.1125000000 7.2300000000 12.6525000000
Cu 27.1125000000 9.0375000000 10.8450000000
Cu 25.3050000000 7.2300000000 14.4600000000
Cu 25.3050000000 9.0375000000 16.2675000000
Cu 27.1125000000 7.2300000000 16.2675000000
Cu 27.1125000000 9.0375000000 14.4600000000
Cu 25.3050000000 7.2300000000 18.0750000000
Cu 25.3050000000 9.0375000000 19.8825000000
Cu 27.1125000000 7.2300000000 19.8825000000
Cu 27.1125000000 9.0375000000 18.0750000000
Cu 25.3050000000 7.2300000000 21.6900000000
Cu 25.3050000000 9.0375000000 23.4975000000
Cu 27.1125000000 7.2300000000 23.4975000000
Cu 27.1125000000 9.0375000000 21.6900000000
Cu 25.3050000000 7.2300000000 25.3050000000
Cu 25.3050000000 9.0375000000 27.1125000000
Cu 27.1125000000 7.2300000000 27.1125000000
Cu 27.1125000000 9.0375000000 25.3050000000
Cu 25.3050000000 10.8450000000 0.0000000000
Cu 25.3050000000 12.6525000000 1.8075000000
Cu 27.1125000000 10.8450000000 1.8075000000
Cu 27.1125000000 12.6525000000 0.0000000000
Cu 25.3050000000 10.8450000000 3.6150000000
Cu 25.3050000000 12.6525000000 5.4225000000
Cu 27.1125000000 10.8450000000 5.4225000000
Cu 27.1125000000 12.6525000000 3.6150000000
Cu 25.3050000000 10.8450000000 7.2300000000
Cu 25.3050000000 12.6525000000 9.0375000000
Cu 27.1125000000 10.8450000000 9.0375000000
Cu 27.1125000000 12.6525000000 7.2300000000
Cu 25.3050000000 10.8450000000 10.8450000000
Cu 25.3050000000 12.6525000000 12.6525000000
Cu 27.1125000000 10.8450000000 12.6525000000
Cu 27.1125000000 12.6525000000 10.8450000000
Cu 25.3050000000 10.8450000000 14.4600000000
Cu 25.3050000000 12.6525000000 16.2675000000
Cu 27.1125000000 10.8450000000 16.2675000000
Cu 27.1125000000 12.6525000000 14.4600000000
Cu 25.3050000000 10.8450000000 18.0750000000
Cu 25.3050000000 12.6525000000 19.8825000000
Cu 27.1125000000 10.8450000000 19.8825000000
Cu 27.1125000000 12.6525000000 18.0750000000
Cu 25.3050000000 10.8450000000 21.6900000000
Cu 25.3050000000 12.6525000000 23.4975000000
Cu 27.1125000000 10.8450000000 23.4975000000
Cu 27.1125000000 12.6525000000 21.6900000000
Cu 25.3050000000 10.8450000000 25.3050000000
Cu 25.3050000000 12.6525000000 27.1125000000
Cu 27.1125000000 10.8450000000 27.1125000000
Cu 27.1125000000 12.6525000000 25.3050000000
Cu 25.3050000000 14.4600000000 0.0000000000
Cu 25.3050000000 16.2675000000 1.8075000000
Cu 27.1125000000 14.4600000000 1.8075000000
Cu 27.1125000000 16.2675000000 0.0000000000
Cu 25.3050000000 14.4600000000 3.6150000000
Cu 25.3050000000 16.2675000000 5.4225000000
Cu 27.1125000000 14.4600000000 5.4225000000
Cu 27.1125000000 16.2675000000 3.6150000000
Cu 25.3050000000 14.4600000000 7.2300000000
Cu 25.3050000000 16.2675000000 9.0375000000
Cu 27.1125000000 14.4600000000 9.0375000000
Cu 27.1125000000 16.2675000000 7.2300000000
Cu 25.3050000000 14.4600000000 10.8450000000
Cu 25.3050000000 16.2675000000 12.6525000000
Cu 27.1125000000 14.4600000000 12.6525000000
Cu 27.1125000000 16.2675000000 10.8450000000
Cu 25.3050000000 14.4600000000 14.4600000000
Cu 25.3050000000 16.2675000000 16.2675000000
Cu 27.1125000000 14.4600000000 16.2675000000
Cu 27.1125000000 16.2675000000 14.4600000000
Cu 25.3050000000 14.4600000000 18.0750000000
Cu 25.3050000000 16.2675000000 19.8825000000
Cu 27.1125000000 14.4600000000 19.8825000000
Cu 27.1125000000 16.2675000000 18.0750000000
Cu 25.3050000000 14.4600000000 21.6900000000
Cu 25.3050000000 16.2675000000 23.4975000000
Cu 27.1125000000 14.4600000000 23.4975000000
Cu 27.1125000000 16.2675000000 21.6900000000
Cu 25.3050000000 14.4600000000 25.3050000000
Cu 25.3050000000 16.2675000000 27.1125000000
Cu 27.1125000000 14.4600000000 27.1125000000
Cu 27.1125000000 16.2675000000 25.3050000000
Cu 25.3050000000 18.0750000000 0.0000000000
Cu 25.3050000000 19.8825000000 1.8075000000
Cu 27.1125000000 18.0750000000 1.8075000000
Cu 27.1125000000 19.8825000000 0.0000000000
Cu 25.3050000000 18.0750000000 3.6150000000
Cu 25.3050000000 19.8825000000 5.4225000000
Cu 27.1125000000 18.0750000000 5.4225000000
Cu 27.1125000000 19.8825000000 3.6150000000
Cu 25.3050000000 18.0750000000 7.2300000000
Cu 25.3050000000 19.8825000000 9.0375000000
Cu 27.1125000000 18.0750000000 9.0375000000
Cu 27.1125000000 19.8825000000 7.2300000000
Cu 25.3050000000 18.0750000000 10.8450000000
Cu 25.3050000000 19.8825000000 12.6525000000
Cu 27.1125000000 18.0750000000 12.6525000000
Cu 27.1125000000 19.8825000000 10.8450000000
Cu 25.3050000000 18.0750000000 14.4600000000
Cu 25.3050000000 19.8825000000 16.2675000000
Cu 27.1125000000 18.0750000000 16.2675000000
Cu 27.1125000000 19.8825000000 14.4600000000
Cu 25.3050000000 18.0750000000 18.0750000000
Cu 25.3050000000 19.8825000000 19.8825000000
Cu 27.1125000000 18.0750000000 19.8825000000
Cu 27.1125000000 19.8825000000 18.0750000000
Cu 25.3050000000 18.0750000000 21.6900000000
Cu 25.3050000000 19.8825000000 23.4975000000
Cu 27.1125000000 18.0750000000 23.4975000000
Cu 27.1125000000 19.8825000000 21.6900000000
Cu 25.3050000000 18.0750000000 25.3050000000
Cu 25.3050000000 19.8825000000 27.1125000000
Cu 27.1125000000 18.0750000000 27.1125000000
Cu 27.1125000000 19.8825000000 25.3050000000
Cu 25.3050000000 21.6900000000 0.0000000000
Cu 25.3050000000 23.4975000000 1.8075000000
Cu 27.1125000000 21.6900000000 1.8075000000
Cu 27.1125000000 23.4975000000 0.0000000000
Cu 25.3050000000 21.6900000000 3.6150000000
Cu 25.3050000000 23.4975000000 5.4225000000
Cu 27.1125000000 21.6900000000 5.4225000000
Cu 27.1125000000 23.4975000000 3.6150000000
Cu 25.3050000000 21.6900000000 7.2300000000
Cu 25.3050000000 23.4975000000 9.0375000000
Cu 27.1125000000 21.6900000000 9.0375000000
Cu 27.1125000000 23.4975000000 7.2300000000
Cu 25.3050000000 21.6900000000 10.8450000000
Cu 25.3050000000 23.4975000000 12.6525000000
Cu 27.1125000000 21.6900000000 12.6525000000
Cu 27.1125000000 23.4975000000 10.8450000000
Cu 25.3050000000 21.6900000000 14.4600000000
Cu 25.3050000000 23.4975000000 16.2675000000
Cu 27.1125000000 21.6900000000 16.2675000000
Cu 27.1125000000 23.4975000000 14.4600000000
Cu 25.3050000000 21.6900000000 18.0750000000
Cu 25.3050000000 23.4975000000 19.8825000000
Cu 27.1125000000 21.6900000000 19.8825000000
Cu 27.1125000000 23.4975000000 18.0750000000
Cu 25.3050000000 21.6900000000 21.6900000000
Cu 25.3050000000 23.4975000000 23.4975000000
Cu 27.1125000000 21.6900000000 23.4975000000
Cu 27.1125000000 23.4975000000 21.6900000000
Cu 25.3050000000 21.6900000000 25.3050000000
Cu 25.3050000000 23.4975000000 27.1125000000
Cu 27.1125000000 21.6900000000 27.1125000000
Cu 27.1125000000 23.4975000000 25.3050000000
Cu 25.3050000000 25.3050000000 0.0000000000
Cu 25.3050000000 27.1125000000 1.8075000000
Cu 27.1125000000 25.3050000000 1.8075000000
Cu 27.1125000000 27.1125000000 0.0000000000
Cu 25.3050000000 25.3050000000 3.6150000000
Cu 25.3050000000 27.1125000000 5.4225000000
Cu 27.1125000000 25.3050000000 5.4225000000
Cu 27.1125000000 27.1125000000 3.6150000000
Cu 25.3050000000 25.3050000000 7.2300000000
Cu 25.3050000000 27.1125000000 9.0375000000
Cu 27.1125000000 25.3050000000 9.0375000000
Cu 27.1125000000 27.1125000000 7.2300000000
Cu 25.3050000000 25.3050000000 10.8450000000
Cu 25.3050000000 27.1125000000 12.6525000000
Cu 27.1125000000 25.3050000000 12.6525000000
Cu 27.1125000000 27.1125000000 10.8450000000
Cu 25.3050000000 25.3050000000 14.4600000000
Cu 25.3050000000 27.1125000000 16.2675000000
Cu 27.1125000000 25.3050000000 16.2675000000
Cu 27.1125000000 27.1125000000 14.4600000000
Cu 25.3050000000 25.3050000000 18.0750000000
Cu 25.3050000000 27.1125000000 19.8825000000
Cu 27.1125000000 25.3050000000 19.8825000000
Cu 27.1125000000 27.1125000000 18.0750000000
Cu 25.3050000000 25.3050000000 21.6900000000
Cu 25.3050000000 27.1125000000 23.4975000000
Cu 27.1125000000 25.3050000000 23.4975000000
Cu 27.1125000000 27.1125000000 21.6900000000
Cu 25.3050000000 25.3050000000 25.3050000000
Cu 25.3050000000 27.1125000000 27.1125000000
Cu 27.1125000000 25.3050000000 27.1125000000
Cu 27.1125000000 27.1125000000 25.3050000000
