146
Lattice="7.69332 0.0 0.0 3.84666 6.66261 0.0 0.0 0.0 66.5341" Properties=species:S:1:pos:R:3 pbc="T T T"
Si 3.92893 2.10466 57.1245
Si 6.16314 3.08479 -0.19408
Si -0.0233877 -0.100539 1.69922
Si -0.0211297 -0.148023 4.22498
Si 1.94856 1.32126 8.5684
Si 1.95895 1.09248 10.8175
Si 3.6173 2.09578 5.1886
Si 3.7886 2.25563 7.68463
Si 0.0100975 0.0188485 11.4937
Si 0.0276459 0.0437934 13.8569
Si 2 1.02655 17.7333
Si 2.06222 1.33229 20.0183
Si 4.05523 2.23473 14.6426
Si 3.91951 2.27104 16.9514
Si 0.116854 0.102298 20.9043
Si 0.1188 -0.0171362 23.2718
Si 2.01425 1.07734 27.2275
Si 1.94229 0.791758 29.6139
Si 3.92706 2.09316 23.9148
Si 3.71313 2.30361 26.2142
Si -0.0924891 -0.06727909999999999 30.3541
Si 0.0445136 -0.0454523 32.6386
Si 1.95997 1.15702 36.5579
Si 2.03621 1.24364 38.9149
Si 3.91737 2.3263 33.5673
Si 3.84671 2.33699 35.8565
Si -0.0278114 0.143499 39.6392
Si -0.0390936 0.0747878 42.0353
Si 1.98344 1.11455 46.0756
Si 1.81189 1.08178 48.4786
Si 3.8838 2.19641 42.9744
Si 3.89 2.31643 45.2095
Si -0.181582 -0.133139 48.9933
Si -0.12152 -0.210425 51.3928
Si 2.1704 1.1904 55.4715
Si 1.91783 1.22184 1.93375
Si 3.74999 2.19573 51.7815
Si 3.80486 2.34173 54.0719
Si 2.10941 3.50963 1.55683
Si 1.86722 3.25281 4.08972
Si 4.01863 4.44707 8.46367
Si 3.9088 4.40313 10.7069
Si 5.81262 5.6961 5.26212
Si 5.77488 5.8251 7.6125
Si 1.88694 3.37626 11.4662
Si 2.18445 3.42287 13.7651
Si 3.84492 4.4679 17.7954
Si 3.9587 4.50735 20.1817
Si 5.85237 5.52999 14.6138
Si 5.85696 5.49912 16.9252
Si 1.91415 3.46186 20.9205
Si 1.99112 3.28462 23.3158
Si 3.80304 4.50856 27.0526
Si 3.76726 4.33559 29.4334
Si 5.77947 5.482 23.9854
Si 5.75068 5.61075 26.369
Si 1.99939 3.0377 30.4097
Si 2.05236 3.31912 32.7444
Si 3.71534 4.56965 36.5708
Si 3.8214 4.46224 38.9496
Si 5.80061 5.55625 33.4376
Si 5.83376 5.61502 35.8129
Si 1.88503 3.4022 39.7043
Si 1.93298 3.37489 42.1423
Si 3.73256 4.5415 45.8887
Si 3.75472 4.29724 48.0935
Si 5.65563 5.64875 42.8469
Si 5.77692 5.61537 45.2322
Si 1.98637 3.40187 49.2272
Si 1.72 3.31538 51.5315
Si 3.68252 4.07974 55.6291
Si 4.27175 4.36752 0.746047
Si 5.59951 5.59366 52.4229
Si 5.54774 5.50167 54.7937
Si 3.96586 -0.09695429999999999 1.61019
Si 3.91001 -0.0562391 4.13696
Si 5.81863 1.12649 8.191420000000001
Si 5.69828 1.01556 10.6293
Si 7.7197 2.17963 5.09691
Si 7.73614 2.33079 7.49966
Si 3.82123 -0.0452125 11.4592
Si 3.85767 0.011493 13.811
Si 5.82391 1.11701 17.6742
Si 5.83207 1.00257 20.0606
Si 7.94077 2.34866 14.4999
Si 7.86745 2.19165 16.9399
Si 3.82072 -0.0174227 20.7348
Si 3.87388 -0.146158 23.1439
Si 5.66545 1.13884 27.2027
Si 5.67605 0.96953 29.5313
Si 7.68572 2.25888 24.1609
Si 7.61221 2.28946 26.4454
Si 3.8467 -0.225123 30.4628
Si 3.928 0.0294021 32.8165
Si 5.68607 1.08225 36.5277
Si 5.67283 1.14056 38.84
Si 7.66569 2.12204 33.5521
Si 7.67709 2.06484 35.8597
Si 3.87401 0.106395 39.7442
Si 3.79282 0.0615226 42.0858
Si 5.60126 1.04804 46.0243
Si 5.6296 1.23938 48.3726
Si 7.67747 2.25606 42.9024
Si 7.62353 2.0783 45.2609
Si 3.78633 -0.0480641 49.1502
Si 3.90625 -0.175007 51.5484
Si 5.43809 1.28578 55.4309
Si 5.83538 1.31289 1.08883
Si 7.64822 1.91001 52.3986
Si 7.72967 1.97086 54.7764
Si 5.89171 3.38265 2.75478
Si 5.79715 3.38965 5.42267
Si 7.80796 4.59249 8.25822
Si 7.6231 4.44784 10.5691
Si 9.56629 5.3239 5.16205
Si 9.80048 5.55319 7.50891
Si 5.70863 3.30214 11.4971
Si 5.94111 3.29842 13.8826
Si 7.78008 4.40098 17.6266
Si 7.63141 4.44282 19.9978
Si 9.59882 5.60841 14.554
Si 9.681290000000001 5.62809 16.8885
Si 5.80413 3.27 20.7994
Si 5.76642 3.24029 23.1189
Si 7.66233 4.42913 27.2513
Si 7.78285 4.1727 29.6333
Si 9.723039999999999 5.56045 23.9432
Si 9.50611 5.6335 26.3484
Si 5.69801 3.31837 30.2269
Si 5.78618 3.33261 32.6687
Si 7.63191 4.38291 36.6969
Si 7.61303 4.48189 38.9959
Si 9.6233 5.56239 33.5043
Si 9.532389999999999 5.54054 35.8135
Si 5.68795 3.32684 39.6504
Si 5.77231 3.42089 42.0641
Si 7.57432 4.35244 45.9088
Si 7.73238 4.37544 48.3356
Si 9.577439999999999 5.5949 42.8807
Si 9.44824 5.54563 45.1621
Si 5.77186 3.46345 49.0977
Si 5.83264 3.44181 51.485
Si 7.5183 4.27662 55.0291
Si 7.59529 4.49602 0.89688
Si 9.54072 5.49077 52.6015
Si 9.470560000000001 5.52838 55.0275
