70
Lattice="2.88345894 -4.9942974 -0.0 2.88345894 4.9942974 0.0 0.0 0.0 32.97393549" Properties=species:S:1:pos:R:3 pbc="T T T"
Ba 2.88345894 -4.9942972 19.9863616
Ba 2.88345894 1.66476553 24.73045162
Ba 2.88345894 -4.9942972 29.47454163
Ba 2.88345894 -1.66476553 8.24348387
Ba 2.88345894 -1.66476603 27.05960809
Ba 2.88345894 -1.66476563 31.59441715
Ba 2.88345894 -1.66476563 17.86648608
Ba 2.88345894 1.66476563 15.10744941
Ba 2.88345894 1.66476563 1.37951834
Ba 2.88345894 4.9942972 12.98757389
Ba 2.88345894 -1.66476603 22.40129515
Ba 2.88345894 1.66476603 10.57264034
Ba 2.88345894 4.9942972 3.49939386
Ba 2.88345894 1.66476603 5.9143274
O 4.16556753 -2.40499148 12.99449446
O 4.32584094 -0.832006 5.86872016
O 2.88345894 3.34440738 17.61009065
O 4.33807049 0.82494566 17.61009098
O 2.88345894 -3.34440738 1.12312291
O 2.88345894 3.33028471 22.35568824
O 1.60135035 2.40499148 29.4814622
O 4.32584094 0.832006 27.10521533
O 4.33807049 0.82494566 31.85081225
O 4.16556753 2.40499148 19.97944103
O 2.88345894 3.33028471 27.105215
O 1.42884739 -0.82494566 15.36384451
O 4.33807049 -0.82494566 15.36384451
O 1.44107694 0.832006 22.35568791
O 2.88345894 -0.18431455 3.49247296
O 4.48110759 0.74236305 8.24348387
O 2.88345894 3.50957169 8.24348387
O 4.33807049 -0.82494566 1.12312324
O 2.88345894 -3.34440738 15.36384484
O 1.42884739 0.82494566 31.85081225
O 2.88345894 -0.18431455 12.99449479
O 2.88345894 -3.33028471 5.86872049
O 4.32584094 0.832006 22.35568791
O 2.88345894 0.18431455 29.48146253
O 4.32584094 -0.832006 10.61824758
O 1.60135035 -2.40499148 12.99449446
O 1.44107694 -0.832006 5.86872016
O 1.44107694 0.832006 27.10521533
O 1.42884739 -0.82494566 1.12312324
O 2.88345894 3.34440738 31.85081258
O 1.28581029 -0.74236305 24.73045162
O 4.48110759 -0.74236305 24.73045162
O 1.44107694 -0.832006 10.61824758
O 2.88345894 -3.50957169 24.73045162
O 2.88345894 0.18431455 19.9794407
O 1.60135035 -2.40499148 3.49247329
O 2.88345894 -3.33028471 10.61824725
O 4.16556753 -2.40499148 3.49247329
O 1.60135035 2.40499148 19.97944103
O 4.16556753 2.40499148 29.4814622
O 1.28581029 0.74236305 8.24348387
O 1.42884739 0.82494566 17.61009098
Ti 2.88345894 1.66476583 21.28201238
Ti 2.88345894 -1.66476583 11.69192311
Ti 2.88345894 1.66476593 18.61493474
Ti 2.88345894 -1.66476593 14.35900075
Ti 2.88345894 -4.9942973 6.92092999
Ti 2.88345894 -4.9942973 9.56603776
Ti 2.88345894 4.9942974 16.48696775
Ti 2.88345894 4.9942973 23.40789773
Ti 2.88345894 4.9942973 26.0530055
Ti 2.88345894 1.66476593 30.8459685
Ti 2.88345894 -1.66476593 2.12796699
Ti 0 0 0
Ti 2.88345894 -1.66476583 4.79504464
Ti 2.88345894 1.66476583 28.17889085
