384
Lattice="12.8839 0.0 0.0 0.0 12.8839 0.0 0.0 0.0 12.8839" Properties=species:S:1:pos:R:3 pbc="T T T"
H 6.70922 1.54987 11.3895
H 0.31305 10.7606 2.00379
H 1.64295 2.77773 1.55031
H 9.566000000000001 7.72678 6.4153
H 9.368 5.52801 1.7939
H 1.62332 10.1895 1.35223
H 1.27813 3.97692 2.45841
H 2.38215 9.455399999999999 8.7454
H 2.58262 3.60078 6.554
H 7.33746 10.113 8.214090000000001
H 8.7592 3.64181 1.37515
H 8.09286 4.52772 7.44002
H 3.60144 2.47484 6.53881
H 5.94174 10.7149 8.03552
H 7.26072 1.55325 7.59275
H 9.3711 10.5474 3.75315
H 8.55458 0.40381 1.65853
H 3.65857 7.23834 0.90727
H 2.09336 2.83899 12.4858
H 8.37229 9.3017 3.65772
H 7.39804 0.42725 0.71613
H 2.9465 9.2392 10.1467
H 4.74453 7.83059 12.87835
H 8.181760000000001 6.48529 9.2715
H 1.37029 5.56511 0.46597
H 5.02874 0.49776 8.236890000000001
H 5.60584 4.58458 8.35061
H 10.2878 2.39871 10.9376
H 11.0811 7.42757 8.888500000000001
H 3.58362 0.83042 8.7219
H 6.09474 6.01393 8.8268
H 0.1364 12.5317 7.32678
H 9.2928 3.74808 7.18345
H 3.7542 9.384499999999999 4.92439
H 11.4508 0.72603 5.85438
H 4.65885 6.40308 4.70583
H 11.135 1.27682 8.8072
H 4.72752 8.34065 5.55216
H 4.60871 5.80737 3.28124
H 7.8948 4.53261 3.36275
H 12.6916 10.9107 12.4698
H 0.70909 6.37801 1.6871
H 12.3032 1.42836 5.00668
H 6.47923 4.61706 3.79574
H 8.832800000000001 6.85143 4.46127
H 11.5938 11.9537 7.02662
H 9.8986 6.69752 9.536799999999999
H 3.17309 1.77295 12.4342
H 12.654 2.34524 11.0304
H 0.30233 9.382300000000001 4.39417
H 0.80496 12.3198 12.0066
H 7.69574 10.829 2.48098
H 4.31356 11.7472 3.21475
H 0.86149 10.2631 5.32275
H 2.07845 11.6658 12.0548
H 9.8142 12.1836 5.15816
H 10.4227 2.68091 5.58745
H 7.08357 7.82674 5.39333
H 3.98755 0.16649 2.76278
H 3.1026 0.50765 5.28749
H 9.945 4.14825 5.45585
H 6.92544 9.132099999999999 6.07577
H 2.22594 12.84755 6.43992
H 8.01376 6.35892 6.55659
H 5.2844 0.95621 5.82503
H 2.89581 10.5559 7.10538
H 0.65268 1.90899 7.18154
H 7.39196 5.24405 5.50212
H 7.95044 2.70109 8.21025
H 9.973800000000001 12.2989 3.64152
H 11.3699 8.6755 0.63637
H 7.3486 11.1843 1.07974
H 5.62352 11.889 12.5935
H 4.65266 8.211259999999999 10.8354
H 5.07945 3.45997 12.4982
H 12.3123 7.52968 0.05349
H 12.0085 3.23007 12.173
H 5.67425 7.23542 11.1723
H 3.76738 12.7334 10.5551
H 7.28437 12.4729 3.13533
H 10.3536 7.82787 2.4841
H 2.69721 11.3754 4.38523
H 6.47442 2.87314 0.2381
H 5.83091 5.74145 6.35985
H 10.8583 8.17723 4.06818
H 2.66697 10.1039 3.48416
H 4.8493 6.46181 7.08638
H 8.8985 12.2443 12.461
H 12.4224 0.28892 2.96261
H 5.89148 11.9311 11.0502
H 10.0702 3.61153 2.34548
H 7.4728 11.3729 12.2783
H 12.4111 0.75037 1.56282
H 7.73075 7.38531 3.47
H 1.45731 10.4981 7.94084
H 8.92 2.83372 10.1923
H 3.78381 1.93818 1.53616
H 3.00898 4.07095 9.0938
H 6.25589 7.85201 9.192500000000001
H 2.40959 11.5284 10.1112
H 1.28307 7.11652 6.19232
H 6.81455 12.1388 9.080500000000001
H 6.50922 7.85823 7.58894
H 8.6874 6.85274 1.7378
H 7.85784 11.0088 6.65849
H 0.82558 12.3145 4.83228
H 1.56 8.49762 6.82046
H 1.91214 0.94742 3.24846
H 8.049379999999999 11.2709 5.06443
H 12.3374 11.9453 4.96701
H 1.70042 12.5193 2.49569
H 12.1651 10.1216 8.6442
H 4.47625 4.47189 10.8024
H 1.30204 0.94501 0.02672
H 10.7389 1.73399 1.73339
H 12.3299 11.5008 9.0358
H 4.53737 5.46658 11.9943
H 11.9735 4.14783 4.87296
H 12.6756 1.30551 12.5966
H 3.74626 10.9312 9.4618
H 3.34691 9.3201 12.3374
H 2.52117 7.38611 5.03762
H 1.58321 2.01923 5.30686
H 11.6118 10.5183 0.77215
H 5.61612 2.55258 2.58679
H 1.22853 7.38533 4.21482
H 11.8338 4.12106 2.94377
H 11.2058 9.885300000000001 10.9158
H 0.72886 4.9079 9.434100000000001
H 8.159940000000001 8.9107 10.753
H 2.9669 6.00655 9.7646
H 6.80214 3.65505 10.2848
H 0.49324 3.55765 8.886200000000001
H 7.71186 10.3627 10.2586
H 7.91036 4.84126 10.3216
H 7.38269 0.27086 6.34183
H 11.6427 4.23028 10.2677
H 4.49803 10.3043 11.6266
H 4.15691 5.41814 8.91
H 6.27289 12.2285 6.71412
H 10.2621 4.85928 10.6029
H 10.0554 10.7205 11.4051
H 4.57347 5.15174 1.42386
H 10.9013 2.83184 0.67923
H 8.19989 2.28391 0.2365
H 5.87524 10.3367 4.31669
H 8.11111 2.76161 5.35627
H 9.761799999999999 9.875500000000001 5.81414
H 10.2761 2.55597 8.888400000000001
H 6.25835 11.8658 4.70427
H 6.85364 2.37957 4.4791
H 12.6679 8.51502 7.51634
H 1.94741 12.3386 8.55294
H 4.61788 11.246 5.96723
H 12.1228 2.50872 7.57744
H 3.76277 9.1693 2.18435
H 1.32313 0.7146400000000001 8.8567
H 7.84934 0.78549 4.10634
H 3.63559 7.9016 3.1257
H 10.3993 1.38836 4.05977
H 12.0602 6.71896 3.06986
H 3.85526 3.24362 2.07872
H 3.04587 5.38257 1.55729
H 4.75936 0.5990799999999999 4.33616
H 0.36145 3.93985 5.83598
H 11.2558 8.8338 7.10427
H 9.341799999999999 8.374169999999999 12.576
H 11.2364 9.680999999999999 5.58357
H 2.03858 7.5678 10.5192
H 9.211499999999999 10.1892 0.36598
H 2.80058 2.82085 8.27474
H 9.582700000000001 7.56228 11.1423
H 8.124879999999999 3.61945 12.2201
H 9.312099999999999 9.471 1.81924
H 4.49596 1.27073 10.7889
H 9.902900000000001 10.4863 7.87252
H 12.5221 7.70917 5.44995
H 6.70152 0.29809 10.15
H 1.45338 2.30782 9.941700000000001
H 4.58457 4.21603 5.47421
H 12.2687 6.04704 5.69696
H 3.8538 12.1168 7.06687
H 4.41718 2.92594 4.57712
H 7.66364 6.89997 11.9215
H 10.036 11.086 1.69552
H 2.65286 6.93732 11.7953
H 2.26661 1.19261 10.5863
H 6.96818 5.67042 11.4478
H 10.6068 12.5637 1.9068
H 10.0273 11.9194 8.606490000000001
H 1.08726 2.83552 4.18933
H 8.8552 5.26663 8.926299999999999
H 10.4448 4.88956 12.6414
H 10.7104 12.2272 12.3856
H 6.85991 5.12145 0.55985
H 3.74741 12.549 0.05267
H 1.09337 8.871 12.401
H 10.2664 0.79825 12.6295
H 12.3386 5.05824 12.6484
H 11.429 9.5595 2.69736
H 0.15278 8.388120000000001 2.27292
H 9.8482 1.05918 7.00974
H 0.07190000000000001 4.00005 0.83184
H 11.6615 10.8342 3.4403
H 10.141 6.50342 7.10846
H 7.06055 1.9383 2.3206
H 5.53096 12.82491 1.47824
H 9.5825 9.568 9.3062
H 1.72261 5.11882 5.77109
H 12.2872 6.24541 8.8124
H 5.47217 1.19796 0.44724
H 8.803000000000001 8.46618 8.53669
H 2.75507 5.52511 7.03411
H 0.7396200000000001 6.90967 8.46547
H 8.8918 0.69839 9.0703
H 11.8982 6.87769 11.0883
H 3.5316 7.7642 8.42512
H 6.25855 2.87327 6.45563
H 9.2806 12.846 10.3633
H 0.47932 6.52723 11.4022
H 3.71551 8.070499999999999 6.92891
H 5.13641 2.17199 7.53258
H 1.94855 8.086069999999999 0.5512
H 2.4919 12.3166 1.05003
H 9.5953 12.5562 6.81212
H 2.57577 4.59036 12.147
H 6.35092 4.18643 1.76646
H 0.15994 8.289249999999999 10.5064
H 6.1859 2.23304 9.2371
H 8.305770000000001 1.40433 11.3681
H 9.7363 6.1064 11.9205
H 0.27358 9.744 10.661
H 4.64867 2.72208 9.467000000000001
H 11.5955 5.84295 1.98627
H 3.79075 10.9218 0.98495
H 2.91699 4.24685 3.70485
H 1.73916 8.42136 2.69041
H 9.338800000000001 2.33232 3.19735
H 5.22184 10.772 1.6842
H 2.03351 5.5313 3.87138
H 12.2695 2.64329 3.00252
H 11.488 4.80492 6.78266
H 11.2403 12.68951 10.6103
H 6.68709 6.52424 1.81432
H 5.48222 9.6317 0.15899
H 1.30676 4.23729 11.3164
H 5.54276 8.20477 3.51099
H 6.90158 7.95641 1.03168
H 6.61224 9.295 11.877
H 6.4296 9.0502 2.60174
H 5.52661 9.867100000000001 9.899699999999999
H 11.076 4.89686 8.449540000000001
H 12.582 0.426 10.1907
H 9.8531 5.60372 3.49768
H 4.81128 9.257400000000001 8.515650000000001
H 10.8263 6.1124 4.66834
O 5.82914 11.3019 11.8171
O 5.47904 2.67187 0.11003
O 6.91535 11.1326 1.94363
O 4.72572 12.5798 3.06122
O 0.21399 9.575200000000001 5.31482
O 1.2341 11.6062 11.5505
O 2.3733 12.7091 5.52977
O 9.584 3.30061 5.76353
O 6.45954 8.33999 5.96974
O 7.40333 5.5732 6.45523
O 7.60935 1.83934 8.41161
O 2.02333 10.0653 7.30733
O 10.1724 11.7276 4.37924
O 11.8475 0.80702 2.38252
O 6.91199 10.8486 7.84903
O 4.84963 5.87373 6.30058
O 3.03785 10.5528 4.22064
O 10.8936 8.28656 3.13156
O 8.18751 7.62469 4.3275
O 3.66943 0.77281 11.0039
O 5.04337 7.41874 10.4411
O 11.7523 2.50193 11.5164
O 12.2206 8.16906 0.80243
O 2.4557 2.06644 0.06403
O 4.08405 7.10549 0.06271
O 7.7357 0.9111900000000001 1.44788
O 8.8261 9.9975 3.12768
O 8.6891 4.00036 7.92378
O 8.42103 11.3773 12.4681
O 0.20816 2.70725 7.58818
O 4.21033 7.99539 7.82127
O 9.6858 5.12933 12.0898
O 2.67879 2.6051 6.56292
O 12.4788 6.39144 11.7364
O 8.9185 12.6924 9.4709
O 0.23955 6.50464 9.158899999999999
O 1.98462 4.98265 6.72445
O 9.059900000000001 9.4047 8.4983
O 5.27805 0.23746 0.60493
O 9.4099 0.51224 6.36305
O 0.78629 8.42412 3.01855
O 11.7923 10.4919 2.59145
O 12.0414 4.36151 0.36874
O 10.0831 0.04522 12.0334
O 1.84169 8.9641 0.15152
O 2.96386 12.026 0.28037
O 6.24366 5.09305 1.35355
O 1.6003 4.38398 12.2555
O 5.6837 9.1714 3.2763
O 7.19582 7.3533 1.78545
O 6.16456 8.932499999999999 12.7039
O 9.9976 5.65813 4.49672
O 4.90589 10.0359 9.107699999999999
O 11.0332 5.30784 7.55112
O 11.7488 0.0287 9.8248
O 2.00748 4.58748 3.67139
O 4.44406 10.2752 1.32033
O 9.5107 1.45734 3.61318
O 12.3018 5.87675 2.67862
O 5.49124 2.38311 9.8767
O 12.8543 9.016999999999999 11.1951
O 7.42466 1.03608 11.6681
O 2.29502 8.905799999999999 9.5358
O 6.86576 6.33604 12.0941
O 1.25492 10.8796 1.9044
O 3.0992 3.05337 9.1912
O 9.683400000000001 9.377700000000001 0.87591
O 8.111230000000001 3.27904 0.27999
O 9.028700000000001 7.59909 11.964
O 10.3325 2.07268 0.88509
O 0.34575 0.68233 0.14916
O 4.17426 4.54088 11.7025
O 12.8794 10.7138 8.937099999999999
O 2.28581 0.37621 2.58495
O 0.08638999999999999 12.1418 4.23197
O 8.362030000000001 10.6936 5.81904
O 9.5966 6.56766 1.6522
O 6.89321 7.52379 8.43084
O 10.3203 11.3809 7.84795
O 6.11047 12.63 9.609400000000001
O 3.1392 11.7294 9.472200000000001
O 3.17577 5.55259 8.9068
O 3.73716 9.600099999999999 11.4787
O 10.7891 4.38047 9.8217
O 6.49464 0.25876 6.66291
O 7.52183 4.02511 10.7903
O 7.36526 9.4541 10.4961
O 0.61659 4.01247 9.7577
O 10.33 10.1356 10.7102
O 0.9853499999999999 1.89974 4.51563
O 1.82885 6.81518 4.75395
O 6.55226 2.69011 2.69565
O 8.7003 5.82064 9.716100000000001
O 1.38153 7.56298 7.05992
O 11.8866 6.95205 5.44713
O 4.28613 11.2573 6.94436
O 4.6386 3.85514 4.54615
O 9.177 4.09965 2.25441
O 9.3597 7.13624 7.18673
O 11.4465 1.59263 5.39937
O 1.55639 6.21617 1.18783
O 11.7877 10.9793 12.7591
O 7.29527 5.11566 3.83282
O 4.83833 6.58842 3.7684
O 3.79581 8.535729999999999 5.48704
O 10.6171 1.88325 8.297330000000001
O 12.3006 12.446 6.62421
O 5.76356 5.13406 9.117100000000001
O 4.18492 0.85476 7.94627
O 10.5575 7.39685 9.6951
O 9.367599999999999 2.16353 10.6651
O 3.82292 4.96046 1.99135
O 3.84841 2.35205 2.44305
O 12.4463 4.44934 5.66015
O 4.61384 1.23015 5.18836
O 3.17672 8.41011 2.39845
O 7.40737 12.7797 4.09308
O 1.35928 0.09959 8.10643
O 11.7922 8.6615 7.84329
O 7.16626 2.34148 5.34272
O 5.87888 11.0488 5.05465
O 11.6781 3.30346 3.39403
O 10.43 9.161099999999999 5.73536
O 1.31368 1.395 10.2644
O 2.04743 6.79397 11.0732
O 9.832000000000001 11.999 1.59294
O 0.83361 3.3047 1.84446
O 5.60166 3.06506 7.19054
