2048
Lattice="32.4016012992 0 0 0 32.4016012992 0 0 0 32.4016012992" Properties=species:S:1:pos:R:3 pbc="T T T" case=zhou_al_fcc
Al 0.0000000000 0.0000000000 0.0000000000
Al 0.0000000000 2.0251000812 2.0251000812
Al 2.0251000812 0.0000000000 2.0251000812
Al 2.0251000812 2.0251000812 0.0000000000
Al 0.0000000000 0.0000000000 4.0502001624
Al 0.0000000000 2.0251000812 6.0753002436
Al 2.0251000812 0.0000000000 6.0753002436
Al 2.0251000812 2.0251000812 4.0502001624
Al 0.0000000000 0.0000000000 8.1004003248
Al 0.0000000000 2.0251000812 10.1255004060
Al 2.0251000812 0.0000000000 10.1255004060
Al 2.0251000812 2.0251000812 8.1004003248
Al 0.0000000000 0.0000000000 12.1506004872
Al 0.0000000000 2.0251000812 14.1757005684
Al 2.0251000812 0.0000000000 14.1757005684
Al 2.0251000812 2.0251000812 12.1506004872
Al 0.0000000000 0.0000000000 16.2008006496
Al 0.0000000000 2.0251000812 18.2259007308
Al 2.0251000812 0.0000000000 18.2259007308
Al 2.0251000812 2.0251000812 16.2008006496
Al 0.0000000000 0.0000000000 20.2510008120
Al 0.0000000000 2.0251000812 22.2761008932
Al 2.0251000812 0.0000000000 22.2761008932
Al 2.0251000812 2.0251000812 20.2510008120
Al 0.0000000000 0.0000000000 24.3012009744
Al 0.0000000000 2.0251000812 26.3263010556
Al 2.0251000812 0.0000000000 26.3263010556
Al 2.0251000812 2.0251000812 24.3012009744
Al 0.0000000000 0.0000000000 28.3514011368
Al 0.0000000000 2.0251000812 30.3765012180
Al 2.0251000812 0.0000000000 30.3765012180
Al 2.0251000812 2.0251000812 28.3514011368
Al 0.0000000000 4.0502001624 0.0000000000
Al 0.0000000000 6.0753002436 2.0251000812
Al 2.0251000812 4.0502001624 2.0251000812
Al 2.0251000812 6.0753002436 0.0000000000
Al 0.0000000000 4.0502001624 4.0502001624
Al 0.0000000000 6.0753002436 6.0753002436
Al 2.0251000812 4.0502001624 6.0753002436
Al 2.0251000812 6.0753002436 4.0502001624
Al 0.0000000000 4.0502001624 8.1004003248
Al 0.0000000000 6.0753002436 10.1255004060
Al 2.0251000812 4.0502001624 10.1255004060
Al 2.0251000812 6.0753002436 8.1004003248
Al 0.0000000000 4.0502001624 12.1506004872
Al 0.0000000000 6.0753002436 14.1757005684
Al 2.0251000812 4.0502001624 14.1757005684
Al 2.0251000812 6.0753002436 12.1506004872
Al 0.0000000000 4.0502001624 16.2008006496
Al 0.0000000000 6.0753002436 18.2259007308
Al 2.0251000812 4.0502001624 18.2259007308
Al 2.0251000812 6.0753002436 16.2008006496
Al 0.0000000000 4.0502001624 20.2510008120
Al 0.0000000000 6.0753002436 22.2761008932
Al 2.0251000812 4.0502001624 22.2761008932
Al 2.0251000812 6.0753002436 20.2510008120
Al 0.0000000000 4.0502001624 24.3012009744
Al 0.0000000000 6.0753002436 26.3263010556
Al 2.0251000812 4.0502001624 26.3263010556
Al 2.0251000812 6.0753002436 24.3012009744
Al 0.0000000000 4.0502001624 28.3514011368
Al 0.0000000000 6.0753002436 30.3765012180
Al 2.0251000812 4.0502001624 30.3765012180
Al 2.0251000812 6.0753002436 28.3514011368
Al 0.0000000000 8.1004003248 0.0000000000
Al 0.0000000000 10.1255004060 2.0251000812
Al 2.0251000812 8.1004003248 2.0251000812
Al 2.0251000812 10.1255004060 0.0000000000
Al 0.0000000000 8.1004003248 4.0502001624
Al 0.0000000000 10.1255004060 6.0753002436
Al 2.0251000812 8.1004003248 6.0753002436
Al 2.0251000812 10.1255004060 4.0502001624
Al 0.0000000000 8.1004003248 8.1004003248
Al 0.0000000000 10.1255004060 10.1255004060
Al 2.0251000812 8.1004003248 10.1255004060
Al 2.0251000812 10.1255004060 8.1004003248
Al 0.0000000000 8.1004003248 12.1506004872
Al 0.0000000000 10.1255004060 14.1757005684
Al 2.0251000812 8.1004003248 14.1757005684
Al 2.0251000812 10.1255004060 12.1506004872
Al 0.0000000000 8.1004003248 16.2008006496
Al 0.0000000000 10.1255004060 18.2259007308
Al 2.0251000812 8.1004003248 18.2259007308
Al 2.0251000812 10.1255004060 16.2008006496
Al 0.0000000000 8.1004003248 20.2510008120
Al 0.0000000000 10.1255004060 22.2761008932
Al 2.0251000812 8.1004003248 22.2761008932
Al 2.0251000812 10.1255004060 20.2510008120
Al 0.0000000000 8.1004003248 24.3012009744
Al 0.0000000000 10.1255004060 26.3263010556
Al 2.0251000812 8.1004003248 26.3263010556
Al 2.0251000812 10.1255004060 24.3012009744
Al 0.0000000000 8.1004003248 28.3514011368
Al 0.0000000000 10.1255004060 30.3765012180
Al 2.0251000812 8.1004003248 30.3765012180
Al 2.0251000812 10.1255004060 28.3514011368
Al 0.0000000000 12.1506004872 0.0000000000
Al 0.0000000000 14.1757005684 2.0251000812
Al 2.0251000812 12.1506004872 2.0251000812
Al 2.0251000812 14.1757005684 0.0000000000
Al 0.0000000000 12.1506004872 4.0502001624
Al 0.0000000000 14.1757005684 6.0753002436
Al 2.0251000812 12.1506004872 6.0753002436
Al 2.0251000812 14.1757005684 4.0502001624
Al 0.0000000000 12.1506004872 8.1004003248
Al 0.0000000000 14.1757005684 10.1255004060
Al 2.0251000812 12.1506004872 10.1255004060
Al 2.0251000812 14.1757005684 8.1004003248
Al 0.0000000000 12.1506004872 12.1506004872
Al 0.0000000000 14.1757005684 14.1757005684
Al 2.0251000812 12.1506004872 14.1757005684
Al 2.0251000812 14.1757005684 12.1506004872
Al 0.0000000000 12.1506004872 16.2008006496
Al 0.0000000000 14.1757005684 18.2259007308
Al 2.0251000812 12.1506004872 18.2259007308
Al 2.0251000812 14.1757005684 16.2008006496
Al 0.0000000000 12.1506004872 20.2510008120
Al 0.0000000000 14.1757005684 22.2761008932
Al 2.0251000812 12.1506004872 22.2761008932
Al 2.0251000812 14.1757005684 20.2510008120
Al 0.0000000000 12.1506004872 24.3012009744
Al 0.0000000000 14.1757005684 26.3263010556
Al 2.0251000812 12.1506004872 26.3263010556
Al 2.0251000812 14.1757005684 24.3012009744
Al 0.0000000000 12.1506004872 28.3514011368
Al 0.0000000000 14.1757005684 30.3765012180
Al 2.0251000812 12.1506004872 30.3765012180
Al 2.0251000812 14.1757005684 28.3514011368
Al 0.0000000000 16.2008006496 0.0000000000
Al 0.0000000000 18.2259007308 2.0251000812
Al 2.0251000812 16.2008006496 2.0251000812
Al 2.0251000812 18.2259007308 0.0000000000
Al 0.0000000000 16.2008006496 4.0502001624
Al 0.0000000000 18.2259007308 6.0753002436
Al 2.0251000812 16.2008006496 6.0753002436
Al 2.0251000812 18.2259007308 4.0502001624
Al 0.0000000000 16.2008006496 8.1004003248
Al 0.0000000000 18.2259007308 10.1255004060
Al 2.0251000812 16.2008006496 10.1255004060
Al 2.0251000812 18.2259007308 8.1004003248
Al 0.0000000000 16.2008006496 12.1506004872
Al 0.0000000000 18.2259007308 14.1757005684
Al 2.0251000812 16.2008006496 14.1757005684
Al 2.0251000812 18.2259007308 12.1506004872
Al 0.0000000000 16.2008006496 16.2008006496
Al 0.0000000000 18.2259007308 18.2259007308
Al 2.0251000812 16.2008006496 18.2259007308
Al 2.0251000812 18.2259007308 16.2008006496
Al 0.0000000000 16.2008006496 20.2510008120
Al 0.0000000000 18.2259007308 22.2761008932
Al 2.0251000812 16.2008006496 22.2761008932
Al 2.0251000812 18.2259007308 20.2510008120
Al 0.0000000000 16.2008006496 24.3012009744
Al 0.0000000000 18.2259007308 26.3263010556
Al 2.0251000812 16.2008006496 26.3263010556
Al 2.0251000812 18.2259007308 24.3012009744
Al 0.0000000000 16.2008006496 28.3514011368
Al 0.0000000000 18.2259007308 30.3765012180
Al 2.0251000812 16.2008006496 30.3765012180
Al 2.0251000812 18.2259007308 28.3514011368
Al 0.0000000000 20.2510008120 0.0000000000
Al 0.0000000000 22.2761008932 2.0251000812
Al 2.0251000812 20.2510008120 2.0251000812
Al 2.0251000812 22.2761008932 0.0000000000
Al 0.0000000000 20.2510008120 4.0502001624
Al 0.0000000000 22.2761008932 6.0753002436
Al 2.0251000812 20.2510008120 6.0753002436
Al 2.0251000812 22.2761008932 4.0502001624
Al 0.0000000000 20.2510008120 8.1004003248
Al 0.0000000000 22.2761008932 10.1255004060
Al 2.0251000812 20.2510008120 10.1255004060
Al 2.0251000812 22.2761008932 8.1004003248
Al 0.0000000000 20.2510008120 12.1506004872
Al 0.0000000000 22.2761008932 14.1757005684
Al 2.0251000812 20.2510008120 14.1757005684
Al 2.0251000812 22.2761008932 12.1506004872
Al 0.0000000000 20.2510008120 16.2008006496
Al 0.0000000000 22.2761008932 18.2259007308
Al 2.0251000812 20.2510008120 18.2259007308
Al 2.0251000812 22.2761008932 16.2008006496
Al 0.0000000000 20.2510008120 20.2510008120
Al 0.0000000000 22.2761008932 22.2761008932
Al 2.0251000812 20.2510008120 22.2761008932
Al 2.0251000812 22.2761008932 20.2510008120
Al 0.0000000000 20.2510008120 24.3012009744
Al 0.0000000000 22.2761008932 26.3263010556
Al 2.0251000812 20.2510008120 26.3263010556
Al 2.0251000812 22.2761008932 24.3012009744
Al 0.0000000000 20.2510008120 28.3514011368
Al 0.0000000000 22.2761008932 30.3765012180
Al 2.0251000812 20.2510008120 30.3765012180
Al 2.0251000812 22.2761008932 28.3514011368
Al 0.0000000000 24.3012009744 0.0000000000
Al 0.0000000000 26.3263010556 2.0251000812
Al 2.0251000812 24.3012009744 2.0251000812
Al 2.0251000812 26.3263010556 0.0000000000
Al 0.0000000000 24.3012009744 4.0502001624
Al 0.0000000000 26.3263010556 6.0753002436
Al 2.0251000812 24.3012009744 6.0753002436
Al 2.0251000812 26.3263010556 4.0502001624
Al 0.0000000000 24.3012009744 8.1004003248
Al 0.0000000000 26.3263010556 10.1255004060
Al 2.0251000812 24.3012009744 10.1255004060
Al 2.0251000812 26.3263010556 8.1004003248
Al 0.0000000000 24.3012009744 12.1506004872
Al 0.0000000000 26.3263010556 14.1757005684
Al 2.0251000812 24.3012009744 14.1757005684
Al 2.0251000812 26.3263010556 12.1506004872
Al 0.0000000000 24.3012009744 16.2008006496
Al 0.0000000000 26.3263010556 18.2259007308
Al 2.0251000812 24.3012009744 18.2259007308
Al 2.0251000812 26.3263010556 16.2008006496
Al 0.0000000000 24.3012009744 20.2510008120
Al 0.0000000000 26.3263010556 22.2761008932
Al 2.0251000812 24.3012009744 22.2761008932
Al 2.0251000812 26.3263010556 20.2510008120
Al 0.0000000000 24.3012009744 24.3012009744
Al 0.0000000000 26.3263010556 26.3263010556
Al 2.0251000812 24.3012009744 26.3263010556
Al 2.0251000812 26.3263010556 24.3012009744
Al 0.0000000000 24.3012009744 28.3514011368
Al 0.0000000000 26.3263010556 30.3765012180
Al 2.0251000812 24.3012009744 30.3765012180
Al 2.0251000812 26.3263010556 28.3514011368
Al 0.0000000000 28.3514011368 0.0000000000
Al 0.0000000000 30.3765012180 2.0251000812
Al 2.0251000812 28.3514011368 2.0251000812
Al 2.0251000812 30.3765012180 0.0000000000
Al 0.0000000000 28.3514011368 4.0502001624
Al 0.0000000000 30.3765012180 6.0753002436
Al 2.0251000812 28.3514011368 6.0753002436
Al 2.0251000812 30.3765012180 4.0502001624
Al 0.0000000000 28.3514011368 8.1004003248
Al 0.0000000000 30.3765012180 10.1255004060
Al 2.0251000812 28.3514011368 10.1255004060
Al 2.0251000812 30.3765012180 8.1004003248
Al 0.0000000000 28.3514011368 12.1506004872
Al 0.0000000000 30.3765012180 14.1757005684
Al 2.0251000812 28.3514011368 14.1757005684
Al 2.0251000812 30.3765012180 12.1506004872
Al 0.0000000000 28.3514011368 16.2008006496
Al 0.0000000000 30.3765012180 18.2259007308
Al 2.0251000812 28.3514011368 18.2259007308
Al 2.0251000812 30.3765012180 16.2008006496
Al 0.0000000000 28.3514011368 20.2510008120
Al 0.0000000000 30.3765012180 22.2761008932
Al 2.0251000812 28.3514011368 22.2761008932
Al 2.0251000812 30.3765012180 20.2510008120
Al 0.0000000000 28.3514011368 24.3012009744
Al 0.0000000000 30.3765012180 26.3263010556
Al 2.0251000812 28.3514011368 26.3263010556
Al 2.0251000812 30.3765012180 24.3012009744
Al 0.0000000000 28.3514011368 28.3514011368
Al 0.0000000000 30.3765012180 30.3765012180
Al 2.0251000812 28.3514011368 30.3765012180
Al 2.0251000812 30.3765012180 28.3514011368
Al 4.0502001624 0.0000000000 0.0000000000
Al 4.0502001624 2.0251000812 2.0251000812
Al 6.0753002436 0.0000000000 2.0251000812
Al 6.0753002436 2.0251000812 0.0000000000
Al 4.0502001624 0.0000000000 4.0502001624
Al 4.0502001624 2.0251000812 6.0753002436
Al 6.0753002436 0.0000000000 6.0753002436
Al 6.0753002436 2.0251000812 4.0502001624
Al 4.0502001624 0.0000000000 8.1004003248
Al 4.0502001624 2.0251000812 10.1255004060
Al 6.0753002436 0.0000000000 10.1255004060
Al 6.0753002436 2.0251000812 8.1004003248
Al 4.0502001624 0.0000000000 12.1506004872
Al 4.0502001624 2.0251000812 14.1757005684
Al 6.0753002436 0.0000000000 14.1757005684
Al 6.0753002436 2.0251000812 12.1506004872
Al 4.0502001624 0.0000000000 16.2008006496
Al 4.0502001624 2.0251000812 18.2259007308
Al 6.0753002436 0.0000000000 18.2259007308
Al 6.0753002436 2.0251000812 16.2008006496
Al 4.0502001624 0.0000000000 20.2510008120
Al 4.0502001624 2.0251000812 22.2761008932
Al 6.0753002436 0.0000000000 22.2761008932
Al 6.0753002436 2.0251000812 20.2510008120
Al 4.0502001624 0.0000000000 24.3012009744
Al 4.0502001624 2.0251000812 26.3263010556
Al 6.0753002436 0.0000000000 26.3263010556
Al 6.0753002436 2.0251000812 24.3012009744
Al 4.0502001624 0.0000000000 28.3514011368
Al 4.0502001624 2.0251000812 30.3765012180
Al 6.0753002436 0.0000000000 30.3765012180
Al 6.0753002436 2.0251000812 28.3514011368
Al 4.0502001624 4.0502001624 0.0000000000
Al 4.0502001624 6.0753002436 2.0251000812
Al 6.0753002436 4.0502001624 2.0251000812
Al 6.0753002436 6.0753002436 0.0000000000
Al 4.0502001624 4.0502001624 4.0502001624
Al 4.0502001624 6.0753002436 6.0753002436
Al 6.0753002436 4.0502001624 6.0753002436
Al 6.0753002436 6.0753002436 4.0502001624
Al 4.0502001624 4.0502001624 8.1004003248
Al 4.0502001624 6.0753002436 10.1255004060
Al 6.0753002436 4.0502001624 10.1255004060
Al 6.0753002436 6.0753002436 8.1004003248
Al 4.0502001624 4.0502001624 12.1506004872
Al 4.0502001624 6.0753002436 14.1757005684
Al 6.0753002436 4.0502001624 14.1757005684
Al 6.0753002436 6.0753002436 12.1506004872
Al 4.0502001624 4.0502001624 16.2008006496
Al 4.0502001624 6.0753002436 18.2259007308
Al 6.0753002436 4.0502001624 18.2259007308
Al 6.0753002436 6.0753002436 16.2008006496
Al 4.0502001624 4.0502001624 20.2510008120
Al 4.0502001624 6.0753002436 22.2761008932
Al 6.0753002436 4.0502001624 22.2761008932
Al 6.0753002436 6.0753002436 20.2510008120
Al 4.0502001624 4.0502001624 24.3012009744
Al 4.0502001624 6.0753002436 26.3263010556
Al 6.0753002436 4.0502001624 26.3263010556
Al 6.0753002436 6.0753002436 24.3012009744
Al 4.0502001624 4.0502001624 28.3514011368
Al 4.0502001624 6.0753002436 30.3765012180
Al 6.0753002436 4.0502001624 30.3765012180
Al 6.0753002436 6.0753002436 28.3514011368
Al 4.0502001624 8.1004003248 0.0000000000
Al 4.0502001624 10.1255004060 2.0251000812
Al 6.0753002436 8.1004003248 2.0251000812
Al 6.0753002436 10.1255004060 0.0000000000
Al 4.0502001624 8.1004003248 4.0502001624
Al 4.0502001624 10.1255004060 6.0753002436
Al 6.0753002436 8.1004003248 6.0753002436
Al 6.0753002436 10.1255004060 4.0502001624
Al 4.0502001624 8.1004003248 8.1004003248
Al 4.0502001624 10.1255004060 10.1255004060
Al 6.0753002436 8.1004003248 10.1255004060
Al 6.0753002436 10.1255004060 8.1004003248
Al 4.0502001624 8.1004003248 12.1506004872
Al 4.0502001624 10.1255004060 14.1757005684
Al 6.0753002436 8.1004003248 14.1757005684
Al 6.0753002436 10.1255004060 12.1506004872
Al 4.0502001624 8.1004003248 16.2008006496
Al 4.0502001624 10.1255004060 18.2259007308
Al 6.0753002436 8.1004003248 18.2259007308
Al 6.0753002436 10.1255004060 16.2008006496
Al 4.0502001624 8.1004003248 20.2510008120
Al 4.0502001624 10.1255004060 22.2761008932
Al 6.0753002436 8.1004003248 22.2761008932
Al 6.0753002436 10.1255004060 20.2510008120
Al 4.0502001624 8.1004003248 24.3012009744
Al 4.0502001624 10.1255004060 26.3263010556
Al 6.0753002436 8.1004003248 26.3263010556
Al 6.0753002436 10.1255004060 24.3012009744
Al 4.0502001624 8.1004003248 28.3514011368
Al 4.0502001624 10.1255004060 30.3765012180
Al 6.0753002436 8.1004003248 30.3765012180
Al 6.0753002436 10.1255004060 28.3514011368
Al 4.0502001624 12.1506004872 0.0000000000
Al 4.0502001624 14.1757005684 2.0251000812
Al 6.0753002436 12.1506004872 2.0251000812
Al 6.0753002436 14.1757005684 0.0000000000
Al 4.0502001624 12.1506004872 4.0502001624
Al 4.0502001624 14.1757005684 6.0753002436
Al 6.0753002436 12.1506004872 6.0753002436
Al 6.0753002436 14.1757005684 4.0502001624
Al 4.0502001624 12.1506004872 8.1004003248
Al 4.0502001624 14.1757005684 10.1255004060
Al 6.0753002436 12.1506004872 10.1255004060
Al 6.0753002436 14.1757005684 8.1004003248
Al 4.0502001624 12.1506004872 12.1506004872
Al 4.0502001624 14.1757005684 14.1757005684
Al 6.0753002436 12.1506004872 14.1757005684
Al 6.0753002436 14.1757005684 12.1506004872
Al 4.0502001624 12.1506004872 16.2008006496
Al 4.0502001624 14.1757005684 18.2259007308
Al 6.0753002436 12.1506004872 18.2259007308
Al 6.0753002436 14.1757005684 16.2008006496
Al 4.0502001624 12.1506004872 20.2510008120
Al 4.0502001624 14.1757005684 22.2761008932
Al 6.0753002436 12.1506004872 22.2761008932
Al 6.0753002436 14.1757005684 20.2510008120
Al 4.0502001624 12.1506004872 24.3012009744
Al 4.0502001624 14.1757005684 26.3263010556
Al 6.0753002436 12.1506004872 26.3263010556
Al 6.0753002436 14.1757005684 24.3012009744
Al 4.0502001624 12.1506004872 28.3514011368
Al 4.0502001624 14.1757005684 30.3765012180
Al 6.0753002436 12.1506004872 30.3765012180
Al 6.0753002436 14.1757005684 28.3514011368
Al 4.0502001624 16.2008006496 0.0000000000
Al 4.0502001624 18.2259007308 2.0251000812
Al 6.0753002436 16.2008006496 2.0251000812
Al 6.0753002436 18.2259007308 0.0000000000
Al 4.0502001624 16.2008006496 4.0502001624
Al 4.0502001624 18.2259007308 6.0753002436
Al 6.0753002436 16.2008006496 6.0753002436
Al 6.0753002436 18.2259007308 4.0502001624
Al 4.0502001624 16.2008006496 8.1004003248
Al 4.0502001624 18.2259007308 10.1255004060
Al 6.0753002436 16.2008006496 10.1255004060
Al 6.0753002436 18.2259007308 8.1004003248
Al 4.0502001624 16.2008006496 12.1506004872
Al 4.0502001624 18.2259007308 14.1757005684
Al 6.0753002436 16.2008006496 14.1757005684
Al 6.0753002436 18.2259007308 12.1506004872
Al 4.0502001624 16.2008006496 16.2008006496
Al 4.0502001624 18.2259007308 18.2259007308
Al 6.0753002436 16.2008006496 18.2259007308
Al 6.0753002436 18.2259007308 16.2008006496
Al 4.0502001624 16.2008006496 20.2510008120
Al 4.0502001624 18.2259007308 22.2761008932
Al 6.0753002436 16.2008006496 22.2761008932
Al 6.0753002436 18.2259007308 20.2510008120
Al 4.0502001624 16.2008006496 24.3012009744
Al 4.0502001624 18.2259007308 26.3263010556
Al 6.0753002436 16.2008006496 26.3263010556
Al 6.0753002436 18.2259007308 24.3012009744
Al 4.0502001624 16.2008006496 28.3514011368
Al 4.0502001624 18.2259007308 30.3765012180
Al 6.0753002436 16.2008006496 30.3765012180
Al 6.0753002436 18.2259007308 28.3514011368
Al 4.0502001624 20.2510008120 0.0000000000
Al 4.0502001624 22.2761008932 2.0251000812
Al 6.0753002436 20.2510008120 2.0251000812
Al 6.0753002436 22.2761008932 0.0000000000
Al 4.0502001624 20.2510008120 4.0502001624
Al 4.0502001624 22.2761008932 6.0753002436
Al 6.0753002436 20.2510008120 6.0753002436
Al 6.0753002436 22.2761008932 4.0502001624
Al 4.0502001624 20.2510008120 8.1004003248
Al 4.0502001624 22.2761008932 10.1255004060
Al 6.0753002436 20.2510008120 10.1255004060
Al 6.0753002436 22.2761008932 8.1004003248
Al 4.0502001624 20.2510008120 12.1506004872
Al 4.0502001624 22.2761008932 14.1757005684
Al 6.0753002436 20.2510008120 14.1757005684
Al 6.0753002436 22.2761008932 12.1506004872
Al 4.0502001624 20.2510008120 16.2008006496
Al 4.0502001624 22.2761008932 18.2259007308
Al 6.0753002436 20.2510008120 18.2259007308
Al 6.0753002436 22.2761008932 16.2008006496
Al 4.0502001624 20.2510008120 20.2510008120
Al 4.0502001624 22.2761008932 22.2761008932
Al 6.0753002436 20.2510008120 22.2761008932
Al 6.0753002436 22.2761008932 20.2510008120
Al 4.0502001624 20.2510008120 24.3012009744
Al 4.0502001624 22.2761008932 26.3263010556
Al 6.0753002436 20.2510008120 26.3263010556
Al 6.0753002436 22.2761008932 24.3012009744
Al 4.0502001624 20.2510008120 28.3514011368
Al 4.0502001624 22.2761008932 30.3765012180
Al 6.0753002436 20.2510008120 30.3765012180
Al 6.0753002436 22.2761008932 28.3514011368
Al 4.0502001624 24.3012009744 0.0000000000
Al 4.0502001624 26.3263010556 2.0251000812
Al 6.0753002436 24.3012009744 2.0251000812
Al 6.0753002436 26.3263010556 0.0000000000
Al 4.0502001624 24.3012009744 4.0502001624
Al 4.0502001624 26.3263010556 6.0753002436
Al 6.0753002436 24.3012009744 6.0753002436
Al 6.0753002436 26.3263010556 4.0502001624
Al 4.0502001624 24.3012009744 8.1004003248
Al 4.0502001624 26.3263010556 10.1255004060
Al 6.0753002436 24.3012009744 10.1255004060
Al 6.0753002436 26.3263010556 8.1004003248
Al 4.0502001624 24.3012009744 12.1506004872
Al 4.0502001624 26.3263010556 14.1757005684
Al 6.0753002436 24.3012009744 14.1757005684
Al 6.0753002436 26.3263010556 12.1506004872
Al 4.0502001624 24.3012009744 16.2008006496
Al 4.0502001624 26.3263010556 18.2259007308
Al 6.0753002436 24.3012009744 18.2259007308
Al 6.0753002436 26.3263010556 16.2008006496
Al 4.0502001624 24.3012009744 20.2510008120
Al 4.0502001624 26.3263010556 22.2761008932
Al 6.0753002436 24.3012009744 22.2761008932
Al 6.0753002436 26.3263010556 20.2510008120
Al 4.0502001624 24.3012009744 24.3012009744
Al 4.0502001624 26.3263010556 26.3263010556
Al 6.0753002436 24.3012009744 26.3263010556
Al 6.0753002436 26.3263010556 24.3012009744
Al 4.0502001624 24.3012009744 28.3514011368
Al 4.0502001624 26.3263010556 30.3765012180
Al 6.0753002436 24.3012009744 30.3765012180
Al 6.0753002436 26.3263010556 28.3514011368
Al 4.0502001624 28.3514011368 0.0000000000
Al 4.0502001624 30.3765012180 2.0251000812
Al 6.0753002436 28.3514011368 2.0251000812
Al 6.0753002436 30.3765012180 0.0000000000
Al 4.0502001624 28.3514011368 4.0502001624
Al 4.0502001624 30.3765012180 6.0753002436
Al 6.0753002436 28.3514011368 6.0753002436
Al 6.0753002436 30.3765012180 4.0502001624
Al 4.0502001624 28.3514011368 8.1004003248
Al 4.0502001624 30.3765012180 10.1255004060
Al 6.0753002436 28.3514011368 10.1255004060
Al 6.0753002436 30.3765012180 8.1004003248
Al 4.0502001624 28.3514011368 12.1506004872
Al 4.0502001624 30.3765012180 14.1757005684
Al 6.0753002436 28.3514011368 14.1757005684
Al 6.0753002436 30.3765012180 12.1506004872
Al 4.0502001624 28.3514011368 16.2008006496
Al 4.0502001624 30.3765012180 18.2259007308
Al 6.0753002436 28.3514011368 18.2259007308
Al 6.0753002436 30.3765012180 16.2008006496
Al 4.0502001624 28.3514011368 20.2510008120
Al 4.0502001624 30.3765012180 22.2761008932
Al 6.0753002436 28.3514011368 22.2761008932
Al 6.0753002436 30.3765012180 20.2510008120
Al 4.0502001624 28.3514011368 24.3012009744
Al 4.0502001624 30.3765012180 26.3263010556
Al 6.0753002436 28.3514011368 26.3263010556
Al 6.0753002436 30.3765012180 24.3012009744
Al 4.0502001624 28.3514011368 28.3514011368
Al 4.0502001624 30.3765012180 30.3765012180
Al 6.0753002436 28.3514011368 30.3765012180
Al 6.0753002436 30.3765012180 28.3514011368
Al 8.1004003248 0.0000000000 0.0000000000
Al 8.1004003248 2.0251000812 2.0251000812
Al 10.1255004060 0.0000000000 2.0251000812
Al 10.1255004060 2.0251000812 0.0000000000
Al 8.1004003248 0.0000000000 4.0502001624
Al 8.1004003248 2.0251000812 6.0753002436
Al 10.1255004060 0.0000000000 6.0753002436
Al 10.1255004060 2.0251000812 4.0502001624
Al 8.1004003248 0.0000000000 8.1004003248
Al 8.1004003248 2.0251000812 10.1255004060
Al 10.1255004060 0.0000000000 10.1255004060
Al 10.1255004060 2.0251000812 8.1004003248
Al 8.1004003248 0.0000000000 12.1506004872
Al 8.1004003248 2.0251000812 14.1757005684
Al 10.1255004060 0.0000000000 14.1757005684
Al 10.1255004060 2.0251000812 12.1506004872
Al 8.1004003248 0.0000000000 16.2008006496
Al 8.1004003248 2.0251000812 18.2259007308
Al 10.1255004060 0.0000000000 18.2259007308
Al 10.1255004060 2.0251000812 16.2008006496
Al 8.1004003248 0.0000000000 20.2510008120
Al 8.1004003248 2.0251000812 22.2761008932
Al 10.1255004060 0.0000000000 22.2761008932
Al 10.1255004060 2.0251000812 20.2510008120
Al 8.1004003248 0.0000000000 24.3012009744
Al 8.1004003248 2.0251000812 26.3263010556
Al 10.1255004060 0.0000000000 26.3263010556
Al 10.1255004060 2.0251000812 24.3012009744
Al 8.1004003248 0.0000000000 28.3514011368
Al 8.1004003248 2.0251000812 30.3765012180
Al 10.1255004060 0.0000000000 30.3765012180
Al 10.1255004060 2.0251000812 28.3514011368
Al 8.1004003248 4.0502001624 0.0000000000
Al 8.1004003248 6.0753002436 2.0251000812
Al 10.1255004060 4.0502001624 2.0251000812
Al 10.1255004060 6.0753002436 0.0000000000
Al 8.1004003248 4.0502001624 4.0502001624
Al 8.1004003248 6.0753002436 6.0753002436
Al 10.1255004060 4.0502001624 6.0753002436
Al 10.1255004060 6.0753002436 4.0502001624
Al 8.1004003248 4.0502001624 8.1004003248
Al 8.1004003248 6.0753002436 10.1255004060
Al 10.1255004060 4.0502001624 10.1255004060
Al 10.1255004060 6.0753002436 8.1004003248
Al 8.1004003248 4.0502001624 12.1506004872
Al 8.1004003248 6.0753002436 14.1757005684
Al 10.1255004060 4.0502001624 14.1757005684
Al 10.1255004060 6.0753002436 12.1506004872
Al 8.1004003248 4.0502001624 16.2008006496
Al 8.1004003248 6.0753002436 18.2259007308
Al 10.1255004060 4.0502001624 18.2259007308
Al 10.1255004060 6.0753002436 16.2008006496
Al 8.1004003248 4.0502001624 20.2510008120
Al 8.1004003248 6.0753002436 22.2761008932
Al 10.1255004060 4.0502001624 22.2761008932
Al 10.1255004060 6.0753002436 20.2510008120
Al 8.1004003248 4.0502001624 24.3012009744
Al 8.1004003248 6.0753002436 26.3263010556
Al 10.1255004060 4.0502001624 26.3263010556
Al 10.1255004060 6.0753002436 24.3012009744
Al 8.1004003248 4.0502001624 28.3514011368
Al 8.1004003248 6.0753002436 30.3765012180
Al 10.1255004060 4.0502001624 30.3765012180
Al 10.1255004060 6.0753002436 28.3514011368
Al 8.1004003248 8.1004003248 0.0000000000
Al 8.1004003248 10.1255004060 2.0251000812
Al 10.1255004060 8.1004003248 2.0251000812
Al 10.1255004060 10.1255004060 0.0000000000
Al 8.1004003248 8.1004003248 4.0502001624
Al 8.1004003248 10.1255004060 6.0753002436
Al 10.1255004060 8.1004003248 6.0753002436
Al 10.1255004060 10.1255004060 4.0502001624
Al 8.1004003248 8.1004003248 8.1004003248
Al 8.1004003248 10.1255004060 10.1255004060
Al 10.1255004060 8.1004003248 10.1255004060
Al 10.1255004060 10.1255004060 8.1004003248
Al 8.1004003248 8.1004003248 12.1506004872
Al 8.1004003248 10.1255004060 14.1757005684
Al 10.1255004060 8.1004003248 14.1757005684
Al 10.1255004060 10.1255004060 12.1506004872
Al 8.1004003248 8.1004003248 16.2008006496
Al 8.1004003248 10.1255004060 18.2259007308
Al 10.1255004060 8.1004003248 18.2259007308
Al 10.1255004060 10.1255004060 16.2008006496
Al 8.1004003248 8.1004003248 20.2510008120
Al 8.1004003248 10.1255004060 22.2761008932
Al 10.1255004060 8.1004003248 22.2761008932
Al 10.1255004060 10.1255004060 20.2510008120
Al 8.1004003248 8.1004003248 24.3012009744
Al 8.1004003248 10.1255004060 26.3263010556
Al 10.1255004060 8.1004003248 26.3263010556
Al 10.1255004060 10.1255004060 24.3012009744
Al 8.1004003248 8.1004003248 28.3514011368
Al 8.1004003248 10.1255004060 30.3765012180
Al 10.1255004060 8.1004003248 30.3765012180
Al 10.1255004060 10.1255004060 28.3514011368
Al 8.1004003248 12.1506004872 0.0000000000
Al 8.1004003248 14.1757005684 2.0251000812
Al 10.1255004060 12.1506004872 2.0251000812
Al 10.1255004060 14.1757005684 0.0000000000
Al 8.1004003248 12.1506004872 4.0502001624
Al 8.1004003248 14.1757005684 6.0753002436
Al 10.1255004060 12.1506004872 6.0753002436
Al 10.1255004060 14.1757005684 4.0502001624
Al 8.1004003248 12.1506004872 8.1004003248
Al 8.1004003248 14.1757005684 10.1255004060
Al 10.1255004060 12.1506004872 10.1255004060
Al 10.1255004060 14.1757005684 8.1004003248
Al 8.1004003248 12.1506004872 12.1506004872
Al 8.1004003248 14.1757005684 14.1757005684
Al 10.1255004060 12.1506004872 14.1757005684
Al 10.1255004060 14.1757005684 12.1506004872
Al 8.1004003248 12.1506004872 16.2008006496
Al 8.1004003248 14.1757005684 18.2259007308
Al 10.1255004060 12.1506004872 18.2259007308
Al 10.1255004060 14.1757005684 16.2008006496
Al 8.1004003248 12.1506004872 20.2510008120
Al 8.1004003248 14.1757005684 22.2761008932
Al 10.1255004060 12.1506004872 22.2761008932
Al 10.1255004060 14.1757005684 20.2510008120
Al 8.1004003248 12.1506004872 24.3012009744
Al 8.1004003248 14.1757005684 26.3263010556
Al 10.1255004060 12.1506004872 26.3263010556
Al 10.1255004060 14.1757005684 24.3012009744
Al 8.1004003248 12.1506004872 28.3514011368
Al 8.1004003248 14.1757005684 30.3765012180
Al 10.1255004060 12.1506004872 30.3765012180
Al 10.1255004060 14.1757005684 28.3514011368
Al 8.1004003248 16.2008006496 0.0000000000
Al 8.1004003248 18.2259007308 2.0251000812
Al 10.1255004060 16.2008006496 2.0251000812
Al 10.1255004060 18.2259007308 0.0000000000
Al 8.1004003248 16.2008006496 4.0502001624
Al 8.1004003248 18.2259007308 6.0753002436
Al 10.1255004060 16.2008006496 6.0753002436
Al 10.1255004060 18.2259007308 4.0502001624
Al 8.1004003248 16.2008006496 8.1004003248
Al 8.1004003248 18.2259007308 10.1255004060
Al 10.1255004060 16.2008006496 10.1255004060
Al 10.1255004060 18.2259007308 8.1004003248
Al 8.1004003248 16.2008006496 12.1506004872
Al 8.1004003248 18.2259007308 14.1757005684
Al 10.1255004060 16.2008006496 14.1757005684
Al 10.1255004060 18.2259007308 12.1506004872
Al 8.1004003248 16.2008006496 16.2008006496
Al 8.1004003248 18.2259007308 18.2259007308
Al 10.1255004060 16.2008006496 18.2259007308
Al 10.1255004060 18.2259007308 16.2008006496
Al 8.1004003248 16.2008006496 20.2510008120
Al 8.1004003248 18.2259007308 22.2761008932
Al 10.1255004060 16.2008006496 22.2761008932
Al 10.1255004060 18.2259007308 20.2510008120
Al 8.1004003248 16.2008006496 24.3012009744
Al 8.1004003248 18.2259007308 26.3263010556
Al 10.1255004060 16.2008006496 26.3263010556
Al 10.1255004060 18.2259007308 24.3012009744
Al 8.1004003248 16.2008006496 28.3514011368
Al 8.1004003248 18.2259007308 30.3765012180
Al 10.1255004060 16.2008006496 30.3765012180
Al 10.1255004060 18.2259007308 28.3514011368
Al 8.1004003248 20.2510008120 0.0000000000
Al 8.1004003248 22.2761008932 2.0251000812
Al 10.1255004060 20.2510008120 2.0251000812
Al 10.1255004060 22.2761008932 0.0000000000
Al 8.1004003248 20.2510008120 4.0502001624
Al 8.1004003248 22.2761008932 6.0753002436
Al 10.1255004060 20.2510008120 6.0753002436
Al 10.1255004060 22.2761008932 4.0502001624
Al 8.1004003248 20.2510008120 8.1004003248
Al 8.1004003248 22.2761008932 10.1255004060
Al 10.1255004060 20.2510008120 10.1255004060
Al 10.1255004060 22.2761008932 8.1004003248
Al 8.1004003248 20.2510008120 12.1506004872
Al 8.1004003248 22.2761008932 14.1757005684
Al 10.1255004060 20.2510008120 14.1757005684
Al 10.1255004060 22.2761008932 12.1506004872
Al 8.1004003248 20.2510008120 16.2008006496
Al 8.1004003248 22.2761008932 18.2259007308
Al 10.1255004060 20.2510008120 18.2259007308
Al 10.1255004060 22.2761008932 16.2008006496
Al 8.1004003248 20.2510008120 20.2510008120
Al 8.1004003248 22.2761008932 22.2761008932
Al 10.1255004060 20.2510008120 22.2761008932
Al 10.1255004060 22.2761008932 20.2510008120
Al 8.1004003248 20.2510008120 24.3012009744
Al 8.1004003248 22.2761008932 26.3263010556
Al 10.1255004060 20.2510008120 26.3263010556
Al 10.1255004060 22.2761008932 24.3012009744
Al 8.1004003248 20.2510008120 28.3514011368
Al 8.1004003248 22.2761008932 30.3765012180
Al 10.1255004060 20.2510008120 30.3765012180
Al 10.1255004060 22.2761008932 28.3514011368
Al 8.1004003248 24.3012009744 0.0000000000
Al 8.1004003248 26.3263010556 2.0251000812
Al 10.1255004060 24.3012009744 2.0251000812
Al 10.1255004060 26.3263010556 0.0000000000
Al 8.1004003248 24.3012009744 4.0502001624
Al 8.1004003248 26.3263010556 6.0753002436
Al 10.1255004060 24.3012009744 6.0753002436
Al 10.1255004060 26.3263010556 4.0502001624
Al 8.1004003248 24.3012009744 8.1004003248
Al 8.1004003248 26.3263010556 10.1255004060
Al 10.1255004060 24.3012009744 10.1255004060
Al 10.1255004060 26.3263010556 8.1004003248
Al 8.1004003248 24.3012009744 12.1506004872
Al 8.1004003248 26.3263010556 14.1757005684
Al 10.1255004060 24.3012009744 14.1757005684
Al 10.1255004060 26.3263010556 12.1506004872
Al 8.1004003248 24.3012009744 16.2008006496
Al 8.1004003248 26.3263010556 18.2259007308
Al 10.1255004060 24.3012009744 18.2259007308
Al 10.1255004060 26.3263010556 16.2008006496
Al 8.1004003248 24.3012009744 20.2510008120
Al 8.1004003248 26.3263010556 22.2761008932
Al 10.1255004060 24.3012009744 22.2761008932
Al 10.1255004060 26.3263010556 20.2510008120
Al 8.1004003248 24.3012009744 24.3012009744
Al 8.1004003248 26.3263010556 26.3263010556
Al 10.1255004060 24.3012009744 26.3263010556
Al 10.1255004060 26.3263010556 24.3012009744
Al 8.1004003248 24.3012009744 28.3514011368
Al 8.1004003248 26.3263010556 30.3765012180
Al 10.1255004060 24.3012009744 30.3765012180
Al 10.1255004060 26.3263010556 28.3514011368
Al 8.1004003248 28.3514011368 0.0000000000
Al 8.1004003248 30.3765012180 2.0251000812
Al 10.1255004060 28.3514011368 2.0251000812
Al 10.1255004060 30.3765012180 0.0000000000
Al 8.1004003248 28.3514011368 4.0502001624
Al 8.1004003248 30.3765012180 6.0753002436
Al 10.1255004060 28.3514011368 6.0753002436
Al 10.1255004060 30.3765012180 4.0502001624
Al 8.1004003248 28.3514011368 8.1004003248
Al 8.1004003248 30.3765012180 10.1255004060
Al 10.1255004060 28.3514011368 10.1255004060
Al 10.1255004060 30.3765012180 8.1004003248
Al 8.1004003248 28.3514011368 12.1506004872
Al 8.1004003248 30.3765012180 14.1757005684
Al 10.1255004060 28.3514011368 14.1757005684
Al 10.1255004060 30.3765012180 12.1506004872
Al 8.1004003248 28.3514011368 16.2008006496
Al 8.1004003248 30.3765012180 18.2259007308
Al 10.1255004060 28.3514011368 18.2259007308
Al 10.1255004060 30.3765012180 16.2008006496
Al 8.1004003248 28.3514011368 20.2510008120
Al 8.1004003248 30.3765012180 22.2761008932
Al 10.1255004060 28.3514011368 22.2761008932
Al 10.1255004060 30.3765012180 20.2510008120
Al 8.1004003248 28.3514011368 24.3012009744
Al 8.1004003248 30.3765012180 26.3263010556
Al 10.1255004060 28.3514011368 26.3263010556
Al 10.1255004060 30.3765012180 24.3012009744
Al 8.1004003248 28.3514011368 28.3514011368
Al 8.1004003248 30.3765012180 30.3765012180
Al 10.1255004060 28.3514011368 30.3765012180
Al 10.1255004060 30.3765012180 28.3514011368
Al 12.1506004872 0.0000000000 0.0000000000
Al 12.1506004872 2.0251000812 2.0251000812
Al 14.1757005684 0.0000000000 2.0251000812
Al 14.1757005684 2.0251000812 0.0000000000
Al 12.1506004872 0.0000000000 4.0502001624
Al 12.1506004872 2.0251000812 6.0753002436
Al 14.1757005684 0.0000000000 6.0753002436
Al 14.1757005684 2.0251000812 4.0502001624
Al 12.1506004872 0.0000000000 8.1004003248
Al 12.1506004872 2.0251000812 10.1255004060
Al 14.1757005684 0.0000000000 10.1255004060
Al 14.1757005684 2.0251000812 8.1004003248
Al 12.1506004872 0.0000000000 12.1506004872
Al 12.1506004872 2.0251000812 14.1757005684
Al 14.1757005684 0.0000000000 14.1757005684
Al 14.1757005684 2.0251000812 12.1506004872
Al 12.1506004872 0.0000000000 16.2008006496
Al 12.1506004872 2.0251000812 18.2259007308
Al 14.1757005684 0.0000000000 18.2259007308
Al 14.1757005684 2.0251000812 16.2008006496
Al 12.1506004872 0.0000000000 20.2510008120
Al 12.1506004872 2.0251000812 22.2761008932
Al 14.1757005684 0.0000000000 22.2761008932
Al 14.1757005684 2.0251000812 20.2510008120
Al 12.1506004872 0.0000000000 24.3012009744
Al 12.1506004872 2.0251000812 26.3263010556
Al 14.1757005684 0.0000000000 26.3263010556
Al 14.1757005684 2.0251000812 24.3012009744
Al 12.1506004872 0.0000000000 28.3514011368
Al 12.1506004872 2.0251000812 30.3765012180
Al 14.1757005684 0.0000000000 30.3765012180
Al 14.1757005684 2.0251000812 28.3514011368
Al 12.1506004872 4.0502001624 0.0000000000
Al 12.1506004872 6.0753002436 2.0251000812
Al 14.1757005684 4.0502001624 2.0251000812
Al 14.1757005684 6.0753002436 0.0000000000
Al 12.1506004872 4.0502001624 4.0502001624
Al 12.1506004872 6.0753002436 6.0753002436
Al 14.1757005684 4.0502001624 6.0753002436
Al 14.1757005684 6.0753002436 4.0502001624
Al 12.1506004872 4.0502001624 8.1004003248
Al 12.1506004872 6.0753002436 10.1255004060
Al 14.1757005684 4.0502001624 10.1255004060
Al 14.1757005684 6.0753002436 8.1004003248
Al 12.1506004872 4.0502001624 12.1506004872
Al 12.1506004872 6.0753002436 14.1757005684
Al 14.1757005684 4.0502001624 14.1757005684
Al 14.1757005684 6.0753002436 12.1506004872
Al 12.1506004872 4.0502001624 16.2008006496
Al 12.1506004872 6.0753002436 18.2259007308
Al 14.1757005684 4.0502001624 18.2259007308
Al 14.1757005684 6.0753002436 16.2008006496
Al 12.1506004872 4.0502001624 20.2510008120
Al 12.1506004872 6.0753002436 22.2761008932
Al 14.1757005684 4.0502001624 22.2761008932
Al 14.1757005684 6.0753002436 20.2510008120
Al 12.1506004872 4.0502001624 24.3012009744
Al 12.1506004872 6.0753002436 26.3263010556
Al 14.1757005684 4.0502001624 26.3263010556
Al 14.1757005684 6.0753002436 24.3012009744
Al 12.1506004872 4.0502001624 28.3514011368
Al 12.1506004872 6.0753002436 30.3765012180
Al 14.1757005684 4.0502001624 30.3765012180
Al 14.1757005684 6.0753002436 28.3514011368
Al 12.1506004872 8.1004003248 0.0000000000
Al 12.1506004872 10.1255004060 2.0251000812
Al 14.1757005684 8.1004003248 2.0251000812
Al 14.1757005684 10.1255004060 0.0000000000
Al 12.1506004872 8.1004003248 4.0502001624
Al 12.1506004872 10.1255004060 6.0753002436
Al 14.1757005684 8.1004003248 6.0753002436
Al 14.1757005684 10.1255004060 4.0502001624
Al 12.1506004872 8.1004003248 8.1004003248
Al 12.1506004872 10.1255004060 10.1255004060
Al 14.1757005684 8.1004003248 10.1255004060
Al 14.1757005684 10.1255004060 8.1004003248
Al 12.1506004872 8.1004003248 12.1506004872
Al 12.1506004872 10.1255004060 14.1757005684
Al 14.1757005684 8.1004003248 14.1757005684
Al 14.1757005684 10.1255004060 12.1506004872
Al 12.1506004872 8.1004003248 16.2008006496
Al 12.1506004872 10.1255004060 18.2259007308
Al 14.1757005684 8.1004003248 18.2259007308
Al 14.1757005684 10.1255004060 16.2008006496
Al 12.1506004872 8.1004003248 20.2510008120
Al 12.1506004872 10.1255004060 22.2761008932
Al 14.1757005684 8.1004003248 22.2761008932
Al 14.1757005684 10.1255004060 20.2510008120
Al 12.1506004872 8.1004003248 24.3012009744
Al 12.1506004872 10.1255004060 26.3263010556
Al 14.1757005684 8.1004003248 26.3263010556
Al 14.1757005684 10.1255004060 24.3012009744
Al 12.1506004872 8.1004003248 28.3514011368
Al 12.1506004872 10.1255004060 30.3765012180
Al 14.1757005684 8.1004003248 30.3765012180
Al 14.1757005684 10.1255004060 28.3514011368
Al 12.1506004872 12.1506004872 0.0000000000
Al 12.1506004872 14.1757005684 2.0251000812
Al 14.1757005684 12.1506004872 2.0251000812
Al 14.1757005684 14.1757005684 0.0000000000
Al 12.1506004872 12.1506004872 4.0502001624
Al 12.1506004872 14.1757005684 6.0753002436
Al 14.1757005684 12.1506004872 6.0753002436
Al 14.1757005684 14.1757005684 4.0502001624
Al 12.1506004872 12.1506004872 8.1004003248
Al 12.1506004872 14.1757005684 10.1255004060
Al 14.1757005684 12.1506004872 10.1255004060
Al 14.1757005684 14.1757005684 8.1004003248
Al 12.1506004872 12.1506004872 12.1506004872
Al 12.1506004872 14.1757005684 14.1757005684
Al 14.1757005684 12.1506004872 14.1757005684
Al 14.1757005684 14.1757005684 12.1506004872
Al 12.1506004872 12.1506004872 16.2008006496
Al 12.1506004872 14.1757005684 18.2259007308
Al 14.1757005684 12.1506004872 18.2259007308
Al 14.1757005684 14.1757005684 16.2008006496
Al 12.1506004872 12.1506004872 20.2510008120
Al 12.1506004872 14.1757005684 22.2761008932
Al 14.1757005684 12.1506004872 22.2761008932
Al 14.1757005684 14.1757005684 20.2510008120
Al 12.1506004872 12.1506004872 24.3012009744
Al 12.1506004872 14.1757005684 26.3263010556
Al 14.1757005684 12.1506004872 26.3263010556
Al 14.1757005684 14.1757005684 24.3012009744
Al 12.1506004872 12.1506004872 28.3514011368
Al 12.1506004872 14.1757005684 30.3765012180
Al 14.1757005684 12.1506004872 30.3765012180
Al 14.1757005684 14.1757005684 28.3514011368
Al 12.1506004872 16.2008006496 0.0000000000
Al 12.1506004872 18.2259007308 2.0251000812
Al 14.1757005684 16.2008006496 2.0251000812
Al 14.1757005684 18.2259007308 0.0000000000
Al 12.1506004872 16.2008006496 4.0502001624
Al 12.1506004872 18.2259007308 6.0753002436
Al 14.1757005684 16.2008006496 6.0753002436
Al 14.1757005684 18.2259007308 4.0502001624
Al 12.1506004872 16.2008006496 8.1004003248
Al 12.1506004872 18.2259007308 10.1255004060
Al 14.1757005684 16.2008006496 10.1255004060
Al 14.1757005684 18.2259007308 8.1004003248
Al 12.1506004872 16.2008006496 12.1506004872
Al 12.1506004872 18.2259007308 14.1757005684
Al 14.1757005684 16.2008006496 14.1757005684
Al 14.1757005684 18.2259007308 12.1506004872
Al 12.1506004872 16.2008006496 16.2008006496
Al 12.1506004872 18.2259007308 18.2259007308
Al 14.1757005684 16.2008006496 18.2259007308
Al 14.1757005684 18.2259007308 16.2008006496
Al 12.1506004872 16.2008006496 20.2510008120
Al 12.1506004872 18.2259007308 22.2761008932
Al 14.1757005684 16.2008006496 22.2761008932
Al 14.1757005684 18.2259007308 20.2510008120
Al 12.1506004872 16.2008006496 24.3012009744
Al 12.1506004872 18.2259007308 26.3263010556
Al 14.1757005684 16.2008006496 26.3263010556
Al 14.1757005684 18.2259007308 24.3012009744
Al 12.1506004872 16.2008006496 28.3514011368
Al 12.1506004872 18.2259007308 30.3765012180
Al 14.1757005684 16.2008006496 30.3765012180
Al 14.1757005684 18.2259007308 28.3514011368
Al 12.1506004872 20.2510008120 0.0000000000
Al 12.1506004872 22.2761008932 2.0251000812
Al 14.1757005684 20.2510008120 2.0251000812
Al 14.1757005684 22.2761008932 0.0000000000
Al 12.1506004872 20.2510008120 4.0502001624
Al 12.1506004872 22.2761008932 6.0753002436
Al 14.1757005684 20.2510008120 6.0753002436
Al 14.1757005684 22.2761008932 4.0502001624
Al 12.1506004872 20.2510008120 8.1004003248
Al 12.1506004872 22.2761008932 10.1255004060
Al 14.1757005684 20.2510008120 10.1255004060
Al 14.1757005684 22.2761008932 8.1004003248
Al 12.1506004872 20.2510008120 12.1506004872
Al 12.1506004872 22.2761008932 14.1757005684
Al 14.1757005684 20.2510008120 14.1757005684
Al 14.1757005684 22.2761008932 12.1506004872
Al 12.1506004872 20.2510008120 16.2008006496
Al 12.1506004872 22.2761008932 18.2259007308
Al 14.1757005684 20.2510008120 18.2259007308
Al 14.1757005684 22.2761008932 16.2008006496
Al 12.1506004872 20.2510008120 20.2510008120
Al 12.1506004872 22.2761008932 22.2761008932
Al 14.1757005684 20.2510008120 22.2761008932
Al 14.1757005684 22.2761008932 20.2510008120
Al 12.1506004872 20.2510008120 24.3012009744
Al 12.1506004872 22.2761008932 26.3263010556
Al 14.1757005684 20.2510008120 26.3263010556
Al 14.1757005684 22.2761008932 24.3012009744
Al 12.1506004872 20.2510008120 28.3514011368
Al 12.1506004872 22.2761008932 30.3765012180
Al 14.1757005684 20.2510008120 30.3765012180
Al 14.1757005684 22.2761008932 28.3514011368
Al 12.1506004872 24.3012009744 0.0000000000
Al 12.1506004872 26.3263010556 2.0251000812
Al 14.1757005684 24.3012009744 2.0251000812
Al 14.1757005684 26.3263010556 0.0000000000
Al 12.1506004872 24.3012009744 4.0502001624
Al 12.1506004872 26.3263010556 6.0753002436
Al 14.1757005684 24.3012009744 6.0753002436
Al 14.1757005684 26.3263010556 4.0502001624
Al 12.1506004872 24.3012009744 8.1004003248
Al 12.1506004872 26.3263010556 10.1255004060
Al 14.1757005684 24.3012009744 10.1255004060
Al 14.1757005684 26.3263010556 8.1004003248
Al 12.1506004872 24.3012009744 12.1506004872
Al 12.1506004872 26.3263010556 14.1757005684
Al 14.1757005684 24.3012009744 14.1757005684
Al 14.1757005684 26.3263010556 12.1506004872
Al 12.1506004872 24.3012009744 16.2008006496
Al 12.1506004872 26.3263010556 18.2259007308
Al 14.1757005684 24.3012009744 18.2259007308
Al 14.1757005684 26.3263010556 16.2008006496
Al 12.1506004872 24.3012009744 20.2510008120
Al 12.1506004872 26.3263010556 22.2761008932
Al 14.1757005684 24.3012009744 22.2761008932
Al 14.1757005684 26.3263010556 20.2510008120
Al 12.1506004872 24.3012009744 24.3012009744
Al 12.1506004872 26.3263010556 26.3263010556
Al 14.1757005684 24.3012009744 26.3263010556
Al 14.1757005684 26.3263010556 24.3012009744
Al 12.1506004872 24.3012009744 28.3514011368
Al 12.1506004872 26.3263010556 30.3765012180
Al 14.1757005684 24.3012009744 30.3765012180
Al 14.1757005684 26.3263010556 28.3514011368
Al 12.1506004872 28.3514011368 0.0000000000
Al 12.1506004872 30.3765012180 2.0251000812
Al 14.1757005684 28.3514011368 2.0251000812
Al 14.1757005684 30.3765012180 0.0000000000
Al 12.1506004872 28.3514011368 4.0502001624
Al 12.1506004872 30.3765012180 6.0753002436
Al 14.1757005684 28.3514011368 6.0753002436
Al 14.1757005684 30.3765012180 4.0502001624
Al 12.1506004872 28.3514011368 8.1004003248
Al 12.1506004872 30.3765012180 10.1255004060
Al 14.1757005684 28.3514011368 10.1255004060
Al 14.1757005684 30.3765012180 8.1004003248
Al 12.1506004872 28.3514011368 12.1506004872
Al 12.1506004872 30.3765012180 14.1757005684
Al 14.1757005684 28.3514011368 14.1757005684
Al 14.1757005684 30.3765012180 12.1506004872
Al 12.1506004872 28.3514011368 16.2008006496
Al 12.1506004872 30.3765012180 18.2259007308
Al 14.1757005684 28.3514011368 18.2259007308
Al 14.1757005684 30.3765012180 16.2008006496
Al 12.1506004872 28.3514011368 20.2510008120
Al 12.1506004872 30.3765012180 22.2761008932
Al 14.1757005684 28.3514011368 22.2761008932
Al 14.1757005684 30.3765012180 20.2510008120
Al 12.1506004872 28.3514011368 24.3012009744
Al 12.1506004872 30.3765012180 26.3263010556
Al 14.1757005684 28.3514011368 26.3263010556
Al 14.1757005684 30.3765012180 24.3012009744
Al 12.1506004872 28.3514011368 28.3514011368
Al 12.1506004872 30.3765012180 30.3765012180
Al 14.1757005684 28.3514011368 30.3765012180
Al 14.1757005684 30.3765012180 28.3514011368
Al 16.2008006496 0.0000000000 0.0000000000
Al 16.2008006496 2.0251000812 2.0251000812
Al 18.2259007308 0.0000000000 2.0251000812
Al 18.2259007308 2.0251000812 0.0000000000
Al 16.2008006496 0.0000000000 4.0502001624
Al 16.2008006496 2.0251000812 6.0753002436
Al 18.2259007308 0.0000000000 6.0753002436
Al 18.2259007308 2.0251000812 4.0502001624
Al 16.2008006496 0.0000000000 8.1004003248
Al 16.2008006496 2.0251000812 10.1255004060
Al 18.2259007308 0.0000000000 10.1255004060
Al 18.2259007308 2.0251000812 8.1004003248
Al 16.2008006496 0.0000000000 12.1506004872
Al 16.2008006496 2.0251000812 14.1757005684
Al 18.2259007308 0.0000000000 14.1757005684
Al 18.2259007308 2.0251000812 12.1506004872
Al 16.2008006496 0.0000000000 16.2008006496
Al 16.2008006496 2.0251000812 18.2259007308
Al 18.2259007308 0.0000000000 18.2259007308
Al 18.2259007308 2.0251000812 16.2008006496
Al 16.2008006496 0.0000000000 20.2510008120
Al 16.2008006496 2.0251000812 22.2761008932
Al 18.2259007308 0.0000000000 22.2761008932
Al 18.2259007308 2.0251000812 20.2510008120
Al 16.2008006496 0.0000000000 24.3012009744
Al 16.2008006496 2.0251000812 26.3263010556
Al 18.2259007308 0.0000000000 26.3263010556
Al 18.2259007308 2.0251000812 24.3012009744
Al 16.2008006496 0.0000000000 28.3514011368
Al 16.2008006496 2.0251000812 30.3765012180
Al 18.2259007308 0.0000000000 30.3765012180
Al 18.2259007308 2.0251000812 28.3514011368
Al 16.2008006496 4.0502001624 0.0000000000
Al 16.2008006496 6.0753002436 2.0251000812
Al 18.2259007308 4.0502001624 2.0251000812
Al 18.2259007308 6.0753002436 0.0000000000
Al 16.2008006496 4.0502001624 4.0502001624
Al 16.2008006496 6.0753002436 6.0753002436
Al 18.2259007308 4.0502001624 6.0753002436
Al 18.2259007308 6.0753002436 4.0502001624
Al 16.2008006496 4.0502001624 8.1004003248
Al 16.2008006496 6.0753002436 10.1255004060
Al 18.2259007308 4.0502001624 10.1255004060
Al 18.2259007308 6.0753002436 8.1004003248
Al 16.2008006496 4.0502001624 12.1506004872
Al 16.2008006496 6.0753002436 14.1757005684
Al 18.2259007308 4.0502001624 14.1757005684
Al 18.2259007308 6.0753002436 12.1506004872
Al 16.2008006496 4.0502001624 16.2008006496
Al 16.2008006496 6.0753002436 18.2259007308
Al 18.2259007308 4.0502001624 18.2259007308
Al 18.2259007308 6.0753002436 16.2008006496
Al 16.2008006496 4.0502001624 20.2510008120
Al 16.2008006496 6.0753002436 22.2761008932
Al 18.2259007308 4.0502001624 22.2761008932
Al 18.2259007308 6.0753002436 20.2510008120
Al 16.2008006496 4.0502001624 24.3012009744
Al 16.2008006496 6.0753002436 26.3263010556
Al 18.2259007308 4.0502001624 26.3263010556
Al 18.2259007308 6.0753002436 24.3012009744
Al 16.2008006496 4.0502001624 28.3514011368
Al 16.2008006496 6.0753002436 30.3765012180
Al 18.2259007308 4.0502001624 30.3765012180
Al 18.2259007308 6.0753002436 28.3514011368
Al 16.2008006496 8.1004003248 0.0000000000
Al 16.2008006496 10.1255004060 2.0251000812
Al 18.2259007308 8.1004003248 2.0251000812
Al 18.2259007308 10.1255004060 0.0000000000
Al 16.2008006496 8.1004003248 4.0502001624
Al 16.2008006496 10.1255004060 6.0753002436
Al 18.2259007308 8.1004003248 6.0753002436
Al 18.2259007308 10.1255004060 4.0502001624
Al 16.2008006496 8.1004003248 8.1004003248
Al 16.2008006496 10.1255004060 10.1255004060
Al 18.2259007308 8.1004003248 10.1255004060
Al 18.2259007308 10.1255004060 8.1004003248
Al 16.2008006496 8.1004003248 12.1506004872
Al 16.2008006496 10.1255004060 14.1757005684
Al 18.2259007308 8.1004003248 14.1757005684
Al 18.2259007308 10.1255004060 12.1506004872
Al 16.2008006496 8.1004003248 16.2008006496
Al 16.2008006496 10.1255004060 18.2259007308
Al 18.2259007308 8.1004003248 18.2259007308
Al 18.2259007308 10.1255004060 16.2008006496
Al 16.2008006496 8.1004003248 20.2510008120
Al 16.2008006496 10.1255004060 22.2761008932
Al 18.2259007308 8.1004003248 22.2761008932
Al 18.2259007308 10.1255004060 20.2510008120
Al 16.2008006496 8.1004003248 24.3012009744
Al 16.2008006496 10.1255004060 26.3263010556
Al 18.2259007308 8.1004003248 26.3263010556
Al 18.2259007308 10.1255004060 24.3012009744
Al 16.2008006496 8.1004003248 28.3514011368
Al 16.2008006496 10.1255004060 30.3765012180
Al 18.2259007308 8.1004003248 30.3765012180
Al 18.2259007308 10.1255004060 28.3514011368
Al 16.2008006496 12.1506004872 0.0000000000
Al 16.2008006496 14.1757005684 2.0251000812
Al 18.2259007308 12.1506004872 2.0251000812
Al 18.2259007308 14.1757005684 0.0000000000
Al 16.2008006496 12.1506004872 4.0502001624
Al 16.2008006496 14.1757005684 6.0753002436
Al 18.2259007308 12.1506004872 6.0753002436
Al 18.2259007308 14.1757005684 4.0502001624
Al 16.2008006496 12.1506004872 8.1004003248
Al 16.2008006496 14.1757005684 10.1255004060
Al 18.2259007308 12.1506004872 10.1255004060
Al 18.2259007308 14.1757005684 8.1004003248
Al 16.2008006496 12.1506004872 12.1506004872
Al 16.2008006496 14.1757005684 14.1757005684
Al 18.2259007308 12.1506004872 14.1757005684
Al 18.2259007308 14.1757005684 12.1506004872
Al 16.2008006496 12.1506004872 16.2008006496
Al 16.2008006496 14.1757005684 18.2259007308
Al 18.2259007308 12.1506004872 18.2259007308
Al 18.2259007308 14.1757005684 16.2008006496
Al 16.2008006496 12.1506004872 20.2510008120
Al 16.2008006496 14.1757005684 22.2761008932
Al 18.2259007308 12.1506004872 22.2761008932
Al 18.2259007308 14.1757005684 20.2510008120
Al 16.2008006496 12.1506004872 24.3012009744
Al 16.2008006496 14.1757005684 26.3263010556
Al 18.2259007308 12.1506004872 26.3263010556
Al 18.2259007308 14.1757005684 24.3012009744
Al 16.2008006496 12.1506004872 28.3514011368
Al 16.2008006496 14.1757005684 30.3765012180
Al 18.2259007308 12.1506004872 30.3765012180
Al 18.2259007308 14.1757005684 28.3514011368
Al 16.2008006496 16.2008006496 0.0000000000
Al 16.2008006496 18.2259007308 2.0251000812
Al 18.2259007308 16.2008006496 2.0251000812
Al 18.2259007308 18.2259007308 0.0000000000
Al 16.2008006496 16.2008006496 4.0502001624
Al 16.2008006496 18.2259007308 6.0753002436
Al 18.2259007308 16.2008006496 6.0753002436
Al 18.2259007308 18.2259007308 4.0502001624
Al 16.2008006496 16.2008006496 8.1004003248
Al 16.2008006496 18.2259007308 10.1255004060
Al 18.2259007308 16.2008006496 10.1255004060
Al 18.2259007308 18.2259007308 8.1004003248
Al 16.2008006496 16.2008006496 12.1506004872
Al 16.2008006496 18.2259007308 14.1757005684
Al 18.2259007308 16.2008006496 14.1757005684
Al 18.2259007308 18.2259007308 12.1506004872
Al 16.2008006496 16.2008006496 16.2008006496
Al 16.2008006496 18.2259007308 18.2259007308
Al 18.2259007308 16.2008006496 18.2259007308
Al 18.2259007308 18.2259007308 16.2008006496
Al 16.2008006496 16.2008006496 20.2510008120
Al 16.2008006496 18.2259007308 22.2761008932
Al 18.2259007308 16.2008006496 22.2761008932
Al 18.2259007308 18.2259007308 20.2510008120
Al 16.2008006496 16.2008006496 24.3012009744
Al 16.2008006496 18.2259007308 26.3263010556
Al 18.2259007308 16.2008006496 26.3263010556
Al 18.2259007308 18.2259007308 24.3012009744
Al 16.2008006496 16.2008006496 28.3514011368
Al 16.2008006496 18.2259007308 30.3765012180
Al 18.2259007308 16.2008006496 30.3765012180
Al 18.2259007308 18.2259007308 28.3514011368
Al 16.2008006496 20.2510008120 0.0000000000
Al 16.2008006496 22.2761008932 2.0251000812
Al 18.2259007308 20.2510008120 2.0251000812
Al 18.2259007308 22.2761008932 0.0000000000
Al 16.2008006496 20.2510008120 4.0502001624
Al 16.2008006496 22.2761008932 6.0753002436
Al 18.2259007308 20.2510008120 6.0753002436
Al 18.2259007308 22.2761008932 4.0502001624
Al 16.2008006496 20.2510008120 8.1004003248
Al 16.2008006496 22.2761008932 10.1255004060
Al 18.2259007308 20.2510008120 10.1255004060
Al 18.2259007308 22.2761008932 8.1004003248
Al 16.2008006496 20.2510008120 12.1506004872
Al 16.2008006496 22.2761008932 14.1757005684
Al 18.2259007308 20.2510008120 14.1757005684
Al 18.2259007308 22.2761008932 12.1506004872
Al 16.2008006496 20.2510008120 16.2008006496
Al 16.2008006496 22.2761008932 18.2259007308
Al 18.2259007308 20.2510008120 18.2259007308
Al 18.2259007308 22.2761008932 16.2008006496
Al 16.2008006496 20.2510008120 20.2510008120
Al 16.2008006496 22.2761008932 22.2761008932
Al 18.2259007308 20.2510008120 22.2761008932
Al 18.2259007308 22.2761008932 20.2510008120
Al 16.2008006496 20.2510008120 24.3012009744
Al 16.2008006496 22.2761008932 26.3263010556
Al 18.2259007308 20.2510008120 26.3263010556
Al 18.2259007308 22.2761008932 24.3012009744
Al 16.2008006496 20.2510008120 28.3514011368
Al 16.2008006496 22.2761008932 30.3765012180
Al 18.2259007308 20.2510008120 30.3765012180
Al 18.2259007308 22.2761008932 28.3514011368
Al 16.2008006496 24.3012009744 0.0000000000
Al 16.2008006496 26.3263010556 2.0251000812
Al 18.2259007308 24.3012009744 2.0251000812
Al 18.2259007308 26.3263010556 0.0000000000
Al 16.2008006496 24.3012009744 4.0502001624
Al 16.2008006496 26.3263010556 6.0753002436
Al 18.2259007308 24.3012009744 6.0753002436
Al 18.2259007308 26.3263010556 4.0502001624
Al 16.2008006496 24.3012009744 8.1004003248
Al 16.2008006496 26.3263010556 10.1255004060
Al 18.2259007308 24.3012009744 10.1255004060
Al 18.2259007308 26.3263010556 8.1004003248
Al 16.2008006496 24.3012009744 12.1506004872
Al 16.2008006496 26.3263010556 14.1757005684
Al 18.2259007308 24.3012009744 14.1757005684
Al 18.2259007308 26.3263010556 12.1506004872
Al 16.2008006496 24.3012009744 16.2008006496
Al 16.2008006496 26.3263010556 18.2259007308
Al 18.2259007308 24.3012009744 18.2259007308
Al 18.2259007308 26.3263010556 16.2008006496
Al 16.2008006496 24.3012009744 20.2510008120
Al 16.2008006496 26.3263010556 22.2761008932
Al 18.2259007308 24.3012009744 22.2761008932
Al 18.2259007308 26.3263010556 20.2510008120
Al 16.2008006496 24.3012009744 24.3012009744
Al 16.2008006496 26.3263010556 26.3263010556
Al 18.2259007308 24.3012009744 26.3263010556
Al 18.2259007308 26.3263010556 24.3012009744
Al 16.2008006496 24.3012009744 28.3514011368
Al 16.2008006496 26.3263010556 30.3765012180
Al 18.2259007308 24.3012009744 30.3765012180
Al 18.2259007308 26.3263010556 28.3514011368
Al 16.2008006496 28.3514011368 0.0000000000
Al 16.2008006496 30.3765012180 2.0251000812
Al 18.2259007308 28.3514011368 2.0251000812
Al 18.2259007308 30.3765012180 0.0000000000
Al 16.2008006496 28.3514011368 4.0502001624
Al 16.2008006496 30.3765012180 6.0753002436
Al 18.2259007308 28.3514011368 6.0753002436
Al 18.2259007308 30.3765012180 4.0502001624
Al 16.2008006496 28.3514011368 8.1004003248
Al 16.2008006496 30.3765012180 10.1255004060
Al 18.2259007308 28.3514011368 10.1255004060
Al 18.2259007308 30.3765012180 8.1004003248
Al 16.2008006496 28.3514011368 12.1506004872
Al 16.2008006496 30.3765012180 14.1757005684
Al 18.2259007308 28.3514011368 14.1757005684
Al 18.2259007308 30.3765012180 12.1506004872
Al 16.2008006496 28.3514011368 16.2008006496
Al 16.2008006496 30.3765012180 18.2259007308
Al 18.2259007308 28.3514011368 18.2259007308
Al 18.2259007308 30.3765012180 16.2008006496
Al 16.2008006496 28.3514011368 20.2510008120
Al 16.2008006496 30.3765012180 22.2761008932
Al 18.2259007308 28.3514011368 22.2761008932
Al 18.2259007308 30.3765012180 20.2510008120
Al 16.2008006496 28.3514011368 24.3012009744
Al 16.2008006496 30.3765012180 26.3263010556
Al 18.2259007308 28.3514011368 26.3263010556
Al 18.2259007308 30.3765012180 24.3012009744
Al 16.2008006496 28.3514011368 28.3514011368
Al 16.2008006496 30.3765012180 30.3765012180
Al 18.2259007308 28.3514011368 30.3765012180
Al 18.2259007308 30.3765012180 28.3514011368
Al 20.2510008120 0.0000000000 0.0000000000
Al 20.2510008120 2.0251000812 2.0251000812
Al 22.2761008932 0.0000000000 2.0251000812
Al 22.2761008932 2.0251000812 0.0000000000
Al 20.2510008120 0.0000000000 4.0502001624
Al 20.2510008120 2.0251000812 6.0753002436
Al 22.2761008932 0.0000000000 6.0753002436
Al 22.2761008932 2.0251000812 4.0502001624
Al 20.2510008120 0.0000000000 8.1004003248
Al 20.2510008120 2.0251000812 10.1255004060
Al 22.2761008932 0.0000000000 10.1255004060
Al 22.2761008932 2.0251000812 8.1004003248
Al 20.2510008120 0.0000000000 12.1506004872
Al 20.2510008120 2.0251000812 14.1757005684
Al 22.2761008932 0.0000000000 14.1757005684
Al 22.2761008932 2.0251000812 12.1506004872
Al 20.2510008120 0.0000000000 16.2008006496
Al 20.2510008120 2.0251000812 18.2259007308
Al 22.2761008932 0.0000000000 18.2259007308
Al 22.2761008932 2.0251000812 16.2008006496
Al 20.2510008120 0.0000000000 20.2510008120
Al 20.2510008120 2.0251000812 22.2761008932
Al 22.2761008932 0.0000000000 22.2761008932
Al 22.2761008932 2.0251000812 20.2510008120
Al 20.2510008120 0.0000000000 24.3012009744
Al 20.2510008120 2.0251000812 26.3263010556
Al 22.2761008932 0.0000000000 26.3263010556
Al 22.2761008932 2.0251000812 24.3012009744
Al 20.2510008120 0.0000000000 28.3514011368
Al 20.2510008120 2.0251000812 30.3765012180
Al 22.2761008932 0.0000000000 30.3765012180
Al 22.2761008932 2.0251000812 28.3514011368
Al 20.2510008120 4.0502001624 0.0000000000
Al 20.2510008120 6.0753002436 2.0251000812
Al 22.2761008932 4.0502001624 2.0251000812
Al 22.2761008932 6.0753002436 0.0000000000
Al 20.2510008120 4.0502001624 4.0502001624
Al 20.2510008120 6.0753002436 6.0753002436
Al 22.2761008932 4.0502001624 6.0753002436
Al 22.2761008932 6.0753002436 4.0502001624
Al 20.2510008120 4.0502001624 8.1004003248
Al 20.2510008120 6.0753002436 10.1255004060
Al 22.2761008932 4.0502001624 10.1255004060
Al 22.2761008932 6.0753002436 8.1004003248
Al 20.2510008120 4.0502001624 12.1506004872
Al 20.2510008120 6.0753002436 14.1757005684
Al 22.2761008932 4.0502001624 14.1757005684
Al 22.2761008932 6.0753002436 12.1506004872
Al 20.2510008120 4.0502001624 16.2008006496
Al 20.2510008120 6.0753002436 18.2259007308
Al 22.2761008932 4.0502001624 18.2259007308
Al 22.2761008932 6.0753002436 16.2008006496
Al 20.2510008120 4.0502001624 20.2510008120
Al 20.2510008120 6.0753002436 22.2761008932
Al 22.2761008932 4.0502001624 22.2761008932
Al 22.2761008932 6.0753002436 20.2510008120
Al 20.2510008120 4.0502001624 24.3012009744
Al 20.2510008120 6.0753002436 26.3263010556
Al 22.2761008932 4.0502001624 26.3263010556
Al 22.2761008932 6.0753002436 24.3012009744
Al 20.2510008120 4.0502001624 28.3514011368
Al 20.2510008120 6.0753002436 30.3765012180
Al 22.2761008932 4.0502001624 30.3765012180
Al 22.2761008932 6.0753002436 28.3514011368
Al 20.2510008120 8.1004003248 0.0000000000
Al 20.2510008120 10.1255004060 2.0251000812
Al 22.2761008932 8.1004003248 2.0251000812
Al 22.2761008932 10.1255004060 0.0000000000
Al 20.2510008120 8.1004003248 4.0502001624
Al 20.2510008120 10.1255004060 6.0753002436
Al 22.2761008932 8.1004003248 6.0753002436
Al 22.2761008932 10.1255004060 4.0502001624
Al 20.2510008120 8.1004003248 8.1004003248
Al 20.2510008120 10.1255004060 10.1255004060
Al 22.2761008932 8.1004003248 10.1255004060
Al 22.2761008932 10.1255004060 8.1004003248
Al 20.2510008120 8.1004003248 12.1506004872
Al 20.2510008120 10.1255004060 14.1757005684
Al 22.2761008932 8.1004003248 14.1757005684
Al 22.2761008932 10.1255004060 12.1506004872
Al 20.2510008120 8.1004003248 16.2008006496
Al 20.2510008120 10.1255004060 18.2259007308
Al 22.2761008932 8.1004003248 18.2259007308
Al 22.2761008932 10.1255004060 16.2008006496
Al 20.2510008120 8.1004003248 20.2510008120
Al 20.2510008120 10.1255004060 22.2761008932
Al 22.2761008932 8.1004003248 22.2761008932
Al 22.2761008932 10.1255004060 20.2510008120
Al 20.2510008120 8.1004003248 24.3012009744
Al 20.2510008120 10.1255004060 26.3263010556
Al 22.2761008932 8.1004003248 26.3263010556
Al 22.2761008932 10.1255004060 24.3012009744
Al 20.2510008120 8.1004003248 28.3514011368
Al 20.2510008120 10.1255004060 30.3765012180
Al 22.2761008932 8.1004003248 30.3765012180
Al 22.2761008932 10.1255004060 28.3514011368
Al 20.2510008120 12.1506004872 0.0000000000
Al 20.2510008120 14.1757005684 2.0251000812
Al 22.2761008932 12.1506004872 2.0251000812
Al 22.2761008932 14.1757005684 0.0000000000
Al 20.2510008120 12.1506004872 4.0502001624
Al 20.2510008120 14.1757005684 6.0753002436
Al 22.2761008932 12.1506004872 6.0753002436
Al 22.2761008932 14.1757005684 4.0502001624
Al 20.2510008120 12.1506004872 8.1004003248
Al 20.2510008120 14.1757005684 10.1255004060
Al 22.2761008932 12.1506004872 10.1255004060
Al 22.2761008932 14.1757005684 8.1004003248
Al 20.2510008120 12.1506004872 12.1506004872
Al 20.2510008120 14.1757005684 14.1757005684
Al 22.2761008932 12.1506004872 14.1757005684
Al 22.2761008932 14.1757005684 12.1506004872
Al 20.2510008120 12.1506004872 16.2008006496
Al 20.2510008120 14.1757005684 18.2259007308
Al 22.2761008932 12.1506004872 18.2259007308
Al 22.2761008932 14.1757005684 16.2008006496
Al 20.2510008120 12.1506004872 20.2510008120
Al 20.2510008120 14.1757005684 22.2761008932
Al 22.2761008932 12.1506004872 22.2761008932
Al 22.2761008932 14.1757005684 20.2510008120
Al 20.2510008120 12.1506004872 24.3012009744
Al 20.2510008120 14.1757005684 26.3263010556
Al 22.2761008932 12.1506004872 26.3263010556
Al 22.2761008932 14.1757005684 24.3012009744
Al 20.2510008120 12.1506004872 28.3514011368
Al 20.2510008120 14.1757005684 30.3765012180
Al 22.2761008932 12.1506004872 30.3765012180
Al 22.2761008932 14.1757005684 28.3514011368
Al 20.2510008120 16.2008006496 0.0000000000
Al 20.2510008120 18.2259007308 2.0251000812
Al 22.2761008932 16.2008006496 2.0251000812
Al 22.2761008932 18.2259007308 0.0000000000
Al 20.2510008120 16.2008006496 4.0502001624
Al 20.2510008120 18.2259007308 6.0753002436
Al 22.2761008932 16.2008006496 6.0753002436
Al 22.2761008932 18.2259007308 4.0502001624
Al 20.2510008120 16.2008006496 8.1004003248
Al 20.2510008120 18.2259007308 10.1255004060
Al 22.2761008932 16.2008006496 10.1255004060
Al 22.2761008932 18.2259007308 8.1004003248
Al 20.2510008120 16.2008006496 12.1506004872
Al 20.2510008120 18.2259007308 14.1757005684
Al 22.2761008932 16.2008006496 14.1757005684
Al 22.2761008932 18.2259007308 12.1506004872
Al 20.2510008120 16.2008006496 16.2008006496
Al 20.2510008120 18.2259007308 18.2259007308
Al 22.2761008932 16.2008006496 18.2259007308
Al 22.2761008932 18.2259007308 16.2008006496
Al 20.2510008120 16.2008006496 20.2510008120
Al 20.2510008120 18.2259007308 22.2761008932
Al 22.2761008932 16.2008006496 22.2761008932
Al 22.2761008932 18.2259007308 20.2510008120
Al 20.2510008120 16.2008006496 24.3012009744
Al 20.2510008120 18.2259007308 26.3263010556
Al 22.2761008932 16.2008006496 26.3263010556
Al 22.2761008932 18.2259007308 24.3012009744
Al 20.2510008120 16.2008006496 28.3514011368
Al 20.2510008120 18.2259007308 30.3765012180
Al 22.2761008932 16.2008006496 30.3765012180
Al 22.2761008932 18.2259007308 28.3514011368
Al 20.2510008120 20.2510008120 0.0000000000
Al 20.2510008120 22.2761008932 2.0251000812
Al 22.2761008932 20.2510008120 2.0251000812
Al 22.2761008932 22.2761008932 0.0000000000
Al 20.2510008120 20.2510008120 4.0502001624
Al 20.2510008120 22.2761008932 6.0753002436
Al 22.2761008932 20.2510008120 6.0753002436
Al 22.2761008932 22.2761008932 4.0502001624
Al 20.2510008120 20.2510008120 8.1004003248
Al 20.2510008120 22.2761008932 10.1255004060
Al 22.2761008932 20.2510008120 10.1255004060
Al 22.2761008932 22.2761008932 8.1004003248
Al 20.2510008120 20.2510008120 12.1506004872
Al 20.2510008120 22.2761008932 14.1757005684
Al 22.2761008932 20.2510008120 14.1757005684
Al 22.2761008932 22.2761008932 12.1506004872
Al 20.2510008120 20.2510008120 16.2008006496
Al 20.2510008120 22.2761008932 18.2259007308
Al 22.2761008932 20.2510008120 18.2259007308
Al 22.2761008932 22.2761008932 16.2008006496
Al 20.2510008120 20.2510008120 20.2510008120
Al 20.2510008120 22.2761008932 22.2761008932
Al 22.2761008932 20.2510008120 22.2761008932
Al 22.2761008932 22.2761008932 20.2510008120
Al 20.2510008120 20.2510008120 24.3012009744
Al 20.2510008120 22.2761008932 26.3263010556
Al 22.2761008932 20.2510008120 26.3263010556
Al 22.2761008932 22.2761008932 24.3012009744
Al 20.2510008120 20.2510008120 28.3514011368
Al 20.2510008120 22.2761008932 30.3765012180
Al 22.2761008932 20.2510008120 30.3765012180
Al 22.2761008932 22.2761008932 28.3514011368
Al 20.2510008120 24.3012009744 0.0000000000
Al 20.2510008120 26.3263010556 2.0251000812
Al 22.2761008932 24.3012009744 2.0251000812
Al 22.2761008932 26.3263010556 0.0000000000
Al 20.2510008120 24.3012009744 4.0502001624
Al 20.2510008120 26.3263010556 6.0753002436
Al 22.2761008932 24.3012009744 6.0753002436
Al 22.2761008932 26.3263010556 4.0502001624
Al 20.2510008120 24.3012009744 8.1004003248
Al 20.2510008120 26.3263010556 10.1255004060
Al 22.2761008932 24.3012009744 10.1255004060
Al 22.2761008932 26.3263010556 8.1004003248
Al 20.2510008120 24.3012009744 12.1506004872
Al 20.2510008120 26.3263010556 14.1757005684
Al 22.2761008932 24.3012009744 14.1757005684
Al 22.2761008932 26.3263010556 12.1506004872
Al 20.2510008120 24.3012009744 16.2008006496
Al 20.2510008120 26.3263010556 18.2259007308
Al 22.2761008932 24.3012009744 18.2259007308
Al 22.2761008932 26.3263010556 16.2008006496
Al 20.2510008120 24.3012009744 20.2510008120
Al 20.2510008120 26.3263010556 22.2761008932
Al 22.2761008932 24.3012009744 22.2761008932
Al 22.2761008932 26.3263010556 20.2510008120
Al 20.2510008120 24.3012009744 24.3012009744
Al 20.2510008120 26.3263010556 26.3263010556
Al 22.2761008932 24.3012009744 26.3263010556
Al 22.2761008932 26.3263010556 24.3012009744
Al 20.2510008120 24.3012009744 28.3514011368
Al 20.2510008120 26.3263010556 30.3765012180
Al 22.2761008932 24.3012009744 30.3765012180
Al 22.2761008932 26.3263010556 28.3514011368
Al 20.2510008120 28.3514011368 0.0000000000
Al 20.2510008120 30.3765012180 2.0251000812
Al 22.2761008932 28.3514011368 2.0251000812
Al 22.2761008932 30.3765012180 0.0000000000
Al 20.2510008120 28.3514011368 4.0502001624
Al 20.2510008120 30.3765012180 6.0753002436
Al 22.2761008932 28.3514011368 6.0753002436
Al 22.2761008932 30.3765012180 4.0502001624
Al 20.2510008120 28.3514011368 8.1004003248
Al 20.2510008120 30.3765012180 10.1255004060
Al 22.2761008932 28.3514011368 10.1255004060
Al 22.2761008932 30.3765012180 8.1004003248
Al 20.2510008120 28.3514011368 12.1506004872
Al 20.2510008120 30.3765012180 14.1757005684
Al 22.2761008932 28.3514011368 14.1757005684
Al 22.2761008932 30.3765012180 12.1506004872
Al 20.2510008120 28.3514011368 16.2008006496
Al 20.2510008120 30.3765012180 18.2259007308
Al 22.2761008932 28.3514011368 18.2259007308
Al 22.2761008932 30.3765012180 16.2008006496
Al 20.2510008120 28.3514011368 20.2510008120
Al 20.2510008120 30.3765012180 22.2761008932
Al 22.2761008932 28.3514011368 22.2761008932
Al 22.2761008932 30.3765012180 20.2510008120
Al 20.2510008120 28.3514011368 24.3012009744
Al 20.2510008120 30.3765012180 26.3263010556
Al 22.2761008932 28.3514011368 26.3263010556
Al 22.2761008932 30.3765012180 24.3012009744
Al 20.2510008120 28.3514011368 28.3514011368
Al 20.2510008120 30.3765012180 30.3765012180
Al 22.2761008932 28.3514011368 30.3765012180
Al 22.2761008932 30.3765012180 28.3514011368
Al 24.3012009744 0.0000000000 0.0000000000
Al 24.3012009744 2.0251000812 2.0251000812
Al 26.3263010556 0.0000000000 2.0251000812
Al 26.3263010556 2.0251000812 0.0000000000
Al 24.3012009744 0.0000000000 4.0502001624
Al 24.3012009744 2.0251000812 6.0753002436
Al 26.3263010556 0.0000000000 6.0753002436
Al 26.3263010556 2.0251000812 4.0502001624
Al 24.3012009744 0.0000000000 8.1004003248
Al 24.3012009744 2.0251000812 10.1255004060
Al 26.3263010556 0.0000000000 10.1255004060
Al 26.3263010556 2.0251000812 8.1004003248
Al 24.3012009744 0.0000000000 12.1506004872
Al 24.3012009744 2.0251000812 14.1757005684
Al 26.3263010556 0.0000000000 14.1757005684
Al 26.3263010556 2.0251000812 12.1506004872
Al 24.3012009744 0.0000000000 16.2008006496
Al 24.3012009744 2.0251000812 18.2259007308
Al 26.3263010556 0.0000000000 18.2259007308
Al 26.3263010556 2.0251000812 16.2008006496
Al 24.3012009744 0.0000000000 20.2510008120
Al 24.3012009744 2.0251000812 22.2761008932
Al 26.3263010556 0.0000000000 22.2761008932
Al 26.3263010556 2.0251000812 20.2510008120
Al 24.3012009744 0.0000000000 24.3012009744
Al 24.3012009744 2.0251000812 26.3263010556
Al 26.3263010556 0.0000000000 26.3263010556
Al 26.3263010556 2.0251000812 24.3012009744
Al 24.3012009744 0.0000000000 28.3514011368
Al 24.3012009744 2.0251000812 30.3765012180
Al 26.3263010556 0.0000000000 30.3765012180
Al 26.3263010556 2.0251000812 28.3514011368
Al 24.3012009744 4.0502001624 0.0000000000
Al 24.3012009744 6.0753002436 2.0251000812
Al 26.3263010556 4.0502001624 2.0251000812
Al 26.3263010556 6.0753002436 0.0000000000
Al 24.3012009744 4.0502001624 4.0502001624
Al 24.3012009744 6.0753002436 6.0753002436
Al 26.3263010556 4.0502001624 6.0753002436
Al 26.3263010556 6.0753002436 4.0502001624
Al 24.3012009744 4.0502001624 8.1004003248
Al 24.3012009744 6.0753002436 10.1255004060
Al 26.3263010556 4.0502001624 10.1255004060
Al 26.3263010556 6.0753002436 8.1004003248
Al 24.3012009744 4.0502001624 12.1506004872
Al 24.3012009744 6.0753002436 14.1757005684
Al 26.3263010556 4.0502001624 14.1757005684
Al 26.3263010556 6.0753002436 12.1506004872
Al 24.3012009744 4.0502001624 16.2008006496
Al 24.3012009744 6.0753002436 18.2259007308
Al 26.3263010556 4.0502001624 18.2259007308
Al 26.3263010556 6.0753002436 16.2008006496
Al 24.3012009744 4.0502001624 20.2510008120
Al 24.3012009744 6.0753002436 22.2761008932
Al 26.3263010556 4.0502001624 22.2761008932
Al 26.3263010556 6.0753002436 20.2510008120
Al 24.3012009744 4.0502001624 24.3012009744
Al 24.3012009744 6.0753002436 26.3263010556
Al 26.3263010556 4.0502001624 26.3263010556
Al 26.3263010556 6.0753002436 24.3012009744
Al 24.3012009744 4.0502001624 28.3514011368
Al 24.3012009744 6.0753002436 30.3765012180
Al 26.3263010556 4.0502001624 30.3765012180
Al 26.3263010556 6.0753002436 28.3514011368
Al 24.3012009744 8.1004003248 0.0000000000
Al 24.3012009744 10.1255004060 2.0251000812
Al 26.3263010556 8.1004003248 2.0251000812
Al 26.3263010556 10.1255004060 0.0000000000
Al 24.3012009744 8.1004003248 4.0502001624
Al 24.3012009744 10.1255004060 6.0753002436
Al 26.3263010556 8.1004003248 6.0753002436
Al 26.3263010556 10.1255004060 4.0502001624
Al 24.3012009744 8.1004003248 8.1004003248
Al 24.3012009744 10.1255004060 10.1255004060
Al 26.3263010556 8.1004003248 10.1255004060
Al 26.3263010556 10.1255004060 8.1004003248
Al 24.3012009744 8.1004003248 12.1506004872
Al 24.3012009744 10.1255004060 14.1757005684
Al 26.3263010556 8.1004003248 14.1757005684
Al 26.3263010556 10.1255004060 12.1506004872
Al 24.3012009744 8.1004003248 16.2008006496
Al 24.3012009744 10.1255004060 18.2259007308
Al 26.3263010556 8.1004003248 18.2259007308
Al 26.3263010556 10.1255004060 16.2008006496
Al 24.3012009744 8.1004003248 20.2510008120
Al 24.3012009744 10.1255004060 22.2761008932
Al 26.3263010556 8.1004003248 22.2761008932
Al 26.3263010556 10.1255004060 20.2510008120
Al 24.3012009744 8.1004003248 24.3012009744
Al 24.3012009744 10.1255004060 26.3263010556
Al 26.3263010556 8.1004003248 26.3263010556
Al 26.3263010556 10.1255004060 24.3012009744
Al 24.3012009744 8.1004003248 28.3514011368
Al 24.3012009744 10.1255004060 30.3765012180
Al 26.3263010556 8.1004003248 30.3765012180
Al 26.3263010556 10.1255004060 28.3514011368
Al 24.3012009744 12.1506004872 0.0000000000
Al 24.3012009744 14.1757005684 2.0251000812
Al 26.3263010556 12.1506004872 2.0251000812
Al 26.3263010556 14.1757005684 0.0000000000
Al 24.3012009744 12.1506004872 4.0502001624
Al 24.3012009744 14.1757005684 6.0753002436
Al 26.3263010556 12.1506004872 6.0753002436
Al 26.3263010556 14.1757005684 4.0502001624
Al 24.3012009744 12.1506004872 8.1004003248
Al 24.3012009744 14.1757005684 10.1255004060
Al 26.3263010556 12.1506004872 10.1255004060
Al 26.3263010556 14.1757005684 8.1004003248
Al 24.3012009744 12.1506004872 12.1506004872
Al 24.3012009744 14.1757005684 14.1757005684
Al 26.3263010556 12.1506004872 14.1757005684
Al 26.3263010556 14.1757005684 12.1506004872
Al 24.3012009744 12.1506004872 16.2008006496
Al 24.3012009744 14.1757005684 18.2259007308
Al 26.3263010556 12.1506004872 18.2259007308
Al 26.3263010556 14.1757005684 16.2008006496
Al 24.3012009744 12.1506004872 20.2510008120
Al 24.3012009744 14.1757005684 22.2761008932
Al 26.3263010556 12.1506004872 22.2761008932
Al 26.3263010556 14.1757005684 20.2510008120
Al 24.3012009744 12.1506004872 24.3012009744
Al 24.3012009744 14.1757005684 26.3263010556
Al 26.3263010556 12.1506004872 26.3263010556
Al 26.3263010556 14.1757005684 24.3012009744
Al 24.3012009744 12.1506004872 28.3514011368
Al 24.3012009744 14.1757005684 30.3765012180
Al 26.3263010556 12.1506004872 30.3765012180
Al 26.3263010556 14.1757005684 28.3514011368
Al 24.3012009744 16.2008006496 0.0000000000
Al 24.3012009744 18.2259007308 2.0251000812
Al 26.3263010556 16.2008006496 2.0251000812
Al 26.3263010556 18.2259007308 0.0000000000
Al 24.3012009744 16.2008006496 4.0502001624
Al 24.3012009744 18.2259007308 6.0753002436
Al 26.3263010556 16.2008006496 6.0753002436
Al 26.3263010556 18.2259007308 4.0502001624
Al 24.3012009744 16.2008006496 8.1004003248
Al 24.3012009744 18.2259007308 10.1255004060
Al 26.3263010556 16.2008006496 10.1255004060
Al 26.3263010556 18.2259007308 8.1004003248
Al 24.3012009744 16.2008006496 12.1506004872
Al 24.3012009744 18.2259007308 14.1757005684
Al 26.3263010556 16.2008006496 14.1757005684
Al 26.3263010556 18.2259007308 12.1506004872
Al 24.3012009744 16.2008006496 16.2008006496
Al 24.3012009744 18.2259007308 18.2259007308
Al 26.3263010556 16.2008006496 18.2259007308
Al 26.3263010556 18.2259007308 16.2008006496
Al 24.3012009744 16.2008006496 20.2510008120
Al 24.3012009744 18.2259007308 22.2761008932
Al 26.3263010556 16.2008006496 22.2761008932
Al 26.3263010556 18.2259007308 20.2510008120
Al 24.3012009744 16.2008006496 24.3012009744
Al 24.3012009744 18.2259007308 26.3263010556
Al 26.3263010556 16.2008006496 26.3263010556
Al 26.3263010556 18.2259007308 24.3012009744
Al 24.3012009744 16.2008006496 28.3514011368
Al 24.3012009744 18.2259007308 30.3765012180
Al 26.3263010556 16.2008006496 30.3765012180
Al 26.3263010556 18.2259007308 28.3514011368
Al 24.3012009744 20.2510008120 0.0000000000
Al 24.3012009744 22.2761008932 2.0251000812
Al 26.3263010556 20.2510008120 2.0251000812
Al 26.3263010556 22.2761008932 0.0000000000
Al 24.3012009744 20.2510008120 4.0502001624
Al 24.3012009744 22.2761008932 6.0753002436
Al 26.3263010556 20.2510008120 6.0753002436
Al 26.3263010556 22.2761008932 4.0502001624
Al 24.3012009744 20.2510008120 8.1004003248
Al 24.3012009744 22.2761008932 10.1255004060
Al 26.3263010556 20.2510008120 10.1255004060
Al 26.3263010556 22.2761008932 8.1004003248
Al 24.3012009744 20.2510008120 12.1506004872
Al 24.3012009744 22.2761008932 14.1757005684
Al 26.3263010556 20.2510008120 14.1757005684
Al 26.3263010556 22.2761008932 12.1506004872
Al 24.3012009744 20.2510008120 16.2008006496
Al 24.3012009744 22.2761008932 18.2259007308
Al 26.3263010556 20.2510008120 18.2259007308
Al 26.3263010556 22.2761008932 16.2008006496
Al 24.3012009744 20.2510008120 20.2510008120
Al 24.3012009744 22.2761008932 22.2761008932
Al 26.3263010556 20.2510008120 22.2761008932
Al 26.3263010556 22.2761008932 20.2510008120
Al 24.3012009744 20.2510008120 24.3012009744
Al 24.3012009744 22.2761008932 26.3263010556
Al 26.3263010556 20.2510008120 26.3263010556
Al 26.3263010556 22.2761008932 24.3012009744
Al 24.3012009744 20.2510008120 28.3514011368
Al 24.3012009744 22.2761008932 30.3765012180
Al 26.3263010556 20.2510008120 30.3765012180
Al 26.3263010556 22.2761008932 28.3514011368
Al 24.3012009744 24.3012009744 0.0000000000
Al 24.3012009744 26.3263010556 2.0251000812
Al 26.3263010556 24.3012009744 2.0251000812
Al 26.3263010556 26.3263010556 0.0000000000
Al 24.3012009744 24.3012009744 4.0502001624
Al 24.3012009744 26.3263010556 6.0753002436
Al 26.3263010556 24.3012009744 6.0753002436
Al 26.3263010556 26.3263010556 4.0502001624
Al 24.3012009744 24.3012009744 8.1004003248
Al 24.3012009744 26.3263010556 10.1255004060
Al 26.3263010556 24.3012009744 10.1255004060
Al 26.3263010556 26.3263010556 8.1004003248
Al 24.3012009744 24.3012009744 12.1506004872
Al 24.3012009744 26.3263010556 14.1757005684
Al 26.3263010556 24.3012009744 14.1757005684
Al 26.3263010556 26.3263010556 12.1506004872
Al 24.3012009744 24.3012009744 16.2008006496
Al 24.3012009744 26.3263010556 18.2259007308
Al 26.3263010556 24.3012009744 18.2259007308
Al 26.3263010556 26.3263010556 16.2008006496
Al 24.3012009744 24.3012009744 20.2510008120
Al 24.3012009744 26.3263010556 22.2761008932
Al 26.3263010556 24.3012009744 22.2761008932
Al 26.3263010556 26.3263010556 20.2510008120
Al 24.3012009744 24.3012009744 24.3012009744
Al 24.3012009744 26.3263010556 26.3263010556
Al 26.3263010556 24.3012009744 26.3263010556
Al 26.3263010556 26.3263010556 24.3012009744
Al 24.3012009744 24.3012009744 28.3514011368
Al 24.3012009744 26.3263010556 30.3765012180
Al 26.3263010556 24.3012009744 30.3765012180
Al 26.3263010556 26.3263010556 28.3514011368
Al 24.3012009744 28.3514011368 0.0000000000
Al 24.3012009744 30.3765012180 2.0251000812
Al 26.3263010556 28.3514011368 2.0251000812
Al 26.3263010556 30.3765012180 0.0000000000
Al 24.3012009744 28.3514011368 4.0502001624
Al 24.3012009744 30.3765012180 6.0753002436
Al 26.3263010556 28.3514011368 6.0753002436
Al 26.3263010556 30.3765012180 4.0502001624
Al 24.3012009744 28.3514011368 8.1004003248
Al 24.3012009744 30.3765012180 10.1255004060
Al 26.3263010556 28.3514011368 10.1255004060
Al 26.3263010556 30.3765012180 8.1004003248
Al 24.3012009744 28.3514011368 12.1506004872
Al 24.3012009744 30.3765012180 14.1757005684
Al 26.3263010556 28.3514011368 14.1757005684
Al 26.3263010556 30.3765012180 12.1506004872
Al 24.3012009744 28.3514011368 16.2008006496
Al 24.3012009744 30.3765012180 18.2259007308
Al 26.3263010556 28.3514011368 18.2259007308
Al 26.3263010556 30.3765012180 16.2008006496
Al 24.3012009744 28.3514011368 20.2510008120
Al 24.3012009744 30.3765012180 22.2761008932
Al 26.3263010556 28.3514011368 22.2761008932
Al 26.3263010556 30.3765012180 20.2510008120
Al 24.3012009744 28.3514011368 24.3012009744
Al 24.3012009744 30.3765012180 26.3263010556
Al 26.3263010556 28.3514011368 26.3263010556
Al 26.3263010556 30.3765012180 24.3012009744
Al 24.3012009744 28.3514011368 28.3514011368
Al 24.3012009744 30.3765012180 30.3765012180
Al 26.3263010556 28.3514011368 30.3765012180
Al 26.3263010556 30.3765012180 28.3514011368
Al 28.3514011368 0.0000000000 0.0000000000
Al 28.3514011368 2.0251000812 2.0251000812
Al 30.3765012180 0.0000000000 2.0251000812
Al 30.3765012180 2.0251000812 0.0000000000
Al 28.3514011368 0.0000000000 4.0502001624
Al 28.3514011368 2.0251000812 6.0753002436
Al 30.3765012180 0.0000000000 6.0753002436
Al 30.3765012180 2.0251000812 4.0502001624
Al 28.3514011368 0.0000000000 8.1004003248
Al 28.3514011368 2.0251000812 10.1255004060
Al 30.3765012180 0.0000000000 10.1255004060
Al 30.3765012180 2.0251000812 8.1004003248
Al 28.3514011368 0.0000000000 12.1506004872
Al 28.3514011368 2.0251000812 14.1757005684
Al 30.3765012180 0.0000000000 14.1757005684
Al 30.3765012180 2.0251000812 12.1506004872
Al 28.3514011368 0.0000000000 16.2008006496
Al 28.3514011368 2.0251000812 18.2259007308
Al 30.3765012180 0.0000000000 18.2259007308
Al 30.3765012180 2.0251000812 16.2008006496
Al 28.3514011368 0.0000000000 20.2510008120
Al 28.3514011368 2.0251000812 22.2761008932
Al 30.3765012180 0.0000000000 22.2761008932
Al 30.3765012180 2.0251000812 20.2510008120
Al 28.3514011368 0.0000000000 24.3012009744
Al 28.3514011368 2.0251000812 26.3263010556
Al 30.3765012180 0.0000000000 26.3263010556
Al 30.3765012180 2.0251000812 24.3012009744
Al 28.3514011368 0.0000000000 28.3514011368
Al 28.3514011368 2.0251000812 30.3765012180
Al 30.3765012180 0.0000000000 30.3765012180
Al 30.3765012180 2.0251000812 28.3514011368
Al 28.3514011368 4.0502001624 0.0000000000
Al 28.3514011368 6.0753002436 2.0251000812
Al 30.3765012180 4.0502001624 2.0251000812
Al 30.3765012180 6.0753002436 0.0000000000
Al 28.3514011368 4.0502001624 4.0502001624
Al 28.3514011368 6.0753002436 6.0753002436
Al 30.3765012180 4.0502001624 6.0753002436
Al 30.3765012180 6.0753002436 4.0502001624
Al 28.3514011368 4.0502001624 8.1004003248
Al 28.3514011368 6.0753002436 10.1255004060
Al 30.3765012180 4.0502001624 10.1255004060
Al 30.3765012180 6.0753002436 8.1004003248
Al 28.3514011368 4.0502001624 12.1506004872
Al 28.3514011368 6.0753002436 14.1757005684
Al 30.3765012180 4.0502001624 14.1757005684
Al 30.3765012180 6.0753002436 12.1506004872
Al 28.3514011368 4.0502001624 16.2008006496
Al 28.3514011368 6.0753002436 18.2259007308
Al 30.3765012180 4.0502001624 18.2259007308
Al 30.3765012180 6.0753002436 16.2008006496
Al 28.3514011368 4.0502001624 20.2510008120
Al 28.3514011368 6.0753002436 22.2761008932
Al 30.3765012180 4.0502001624 22.2761008932
Al 30.3765012180 6.0753002436 20.2510008120
Al 28.3514011368 4.0502001624 24.3012009744
Al 28.3514011368 6.0753002436 26.3263010556
Al 30.3765012180 4.0502001624 26.3263010556
Al 30.3765012180 6.0753002436 24.3012009744
Al 28.3514011368 4.0502001624 28.3514011368
Al 28.3514011368 6.0753002436 30.3765012180
Al 30.3765012180 4.0502001624 30.3765012180
Al 30.3765012180 6.0753002436 28.3514011368
Al 28.3514011368 8.1004003248 0.0000000000
Al 28.3514011368 10.1255004060 2.0251000812
Al 30.3765012180 8.1004003248 2.0251000812
Al 30.3765012180 10.1255004060 0.0000000000
Al 28.3514011368 8.1004003248 4.0502001624
Al 28.3514011368 10.1255004060 6.0753002436
Al 30.3765012180 8.1004003248 6.0753002436
Al 30.3765012180 10.1255004060 4.0502001624
Al 28.3514011368 8.1004003248 8.1004003248
Al 28.3514011368 10.1255004060 10.1255004060
Al 30.3765012180 8.1004003248 10.1255004060
Al 30.3765012180 10.1255004060 8.1004003248
Al 28.3514011368 8.1004003248 12.1506004872
Al 28.3514011368 10.1255004060 14.1757005684
Al 30.3765012180 8.1004003248 14.1757005684
Al 30.3765012180 10.1255004060 12.1506004872
Al 28.3514011368 8.1004003248 16.2008006496
Al 28.3514011368 10.1255004060 18.2259007308
Al 30.3765012180 8.1004003248 18.2259007308
Al 30.3765012180 10.1255004060 16.2008006496
Al 28.3514011368 8.1004003248 20.2510008120
Al 28.3514011368 10.1255004060 22.2761008932
Al 30.3765012180 8.1004003248 22.2761008932
Al 30.3765012180 10.1255004060 20.2510008120
Al 28.3514011368 8.1004003248 24.3012009744
Al 28.3514011368 10.1255004060 26.3263010556
Al 30.3765012180 8.1004003248 26.3263010556
Al 30.3765012180 10.1255004060 24.3012009744
Al 28.3514011368 8.1004003248 28.3514011368
Al 28.3514011368 10.1255004060 30.3765012180
Al 30.3765012180 8.1004003248 30.3765012180
Al 30.3765012180 10.1255004060 28.3514011368
Al 28.3514011368 12.1506004872 0.0000000000
Al 28.3514011368 14.1757005684 2.0251000812
Al 30.3765012180 12.1506004872 2.0251000812
Al 30.3765012180 14.1757005684 0.0000000000
Al 28.3514011368 12.1506004872 4.0502001624
Al 28.3514011368 14.1757005684 6.0753002436
Al 30.3765012180 12.1506004872 6.0753002436
Al 30.3765012180 14.1757005684 4.0502001624
Al 28.3514011368 12.1506004872 8.1004003248
Al 28.3514011368 14.1757005684 10.1255004060
Al 30.3765012180 12.1506004872 10.1255004060
Al 30.3765012180 14.1757005684 8.1004003248
Al 28.3514011368 12.1506004872 12.1506004872
Al 28.3514011368 14.1757005684 14.1757005684
Al 30.3765012180 12.1506004872 14.1757005684
Al 30.3765012180 14.1757005684 12.1506004872
Al 28.3514011368 12.1506004872 16.2008006496
Al 28.3514011368 14.1757005684 18.2259007308
Al 30.3765012180 12.1506004872 18.2259007308
Al 30.3765012180 14.1757005684 16.2008006496
Al 28.3514011368 12.1506004872 20.2510008120
Al 28.3514011368 14.1757005684 22.2761008932
Al 30.3765012180 12.1506004872 22.2761008932
Al 30.3765012180 14.1757005684 20.2510008120
Al 28.3514011368 12.1506004872 24.3012009744
Al 28.3514011368 14.1757005684 26.3263010556
Al 30.3765012180 12.1506004872 26.3263010556
Al 30.3765012180 14.1757005684 24.3012009744
Al 28.3514011368 12.1506004872 28.3514011368
Al 28.3514011368 14.1757005684 30.3765012180
Al 30.3765012180 12.1506004872 30.3765012180
Al 30.3765012180 14.1757005684 28.3514011368
Al 28.3514011368 16.2008006496 0.0000000000
Al 28.3514011368 18.2259007308 2.0251000812
Al 30.3765012180 16.2008006496 2.0251000812
Al 30.3765012180 18.2259007308 0.0000000000
Al 28.3514011368 16.2008006496 4.0502001624
Al 28.3514011368 18.2259007308 6.0753002436
Al 30.3765012180 16.2008006496 6.0753002436
Al 30.3765012180 18.2259007308 4.0502001624
Al 28.3514011368 16.2008006496 8.1004003248
Al 28.3514011368 18.2259007308 10.1255004060
Al 30.3765012180 16.2008006496 10.1255004060
Al 30.3765012180 18.2259007308 8.1004003248
Al 28.3514011368 16.2008006496 12.1506004872
Al 28.3514011368 18.2259007308 14.1757005684
Al 30.3765012180 16.2008006496 14.1757005684
Al 30.3765012180 18.2259007308 12.1506004872
Al 28.3514011368 16.2008006496 16.2008006496
Al 28.3514011368 18.2259007308 18.2259007308
Al 30.3765012180 16.2008006496 18.2259007308
Al 30.3765012180 18.2259007308 16.2008006496
Al 28.3514011368 16.2008006496 20.2510008120
Al 28.3514011368 18.2259007308 22.2761008932
Al 30.3765012180 16.2008006496 22.2761008932
Al 30.3765012180 18.2259007308 20.2510008120
Al 28.3514011368 16.2008006496 24.3012009744
Al 28.3514011368 18.2259007308 26.3263010556
Al 30.3765012180 16.2008006496 26.3263010556
Al 30.3765012180 18.2259007308 24.3012009744
Al 28.3514011368 16.2008006496 28.3514011368
Al 28.3514011368 18.2259007308 30.3765012180
Al 30.3765012180 16.2008006496 30.3765012180
Al 30.3765012180 18.2259007308 28.3514011368
Al 28.3514011368 20.2510008120 0.0000000000
Al 28.3514011368 22.2761008932 2.0251000812
Al 30.3765012180 20.2510008120 2.0251000812
Al 30.3765012180 22.2761008932 0.0000000000
Al 28.3514011368 20.2510008120 4.0502001624
Al 28.3514011368 22.2761008932 6.0753002436
Al 30.3765012180 20.2510008120 6.0753002436
Al 30.3765012180 22.2761008932 4.0502001624
Al 28.3514011368 20.2510008120 8.1004003248
Al 28.3514011368 22.2761008932 10.1255004060
Al 30.3765012180 20.2510008120 10.1255004060
Al 30.3765012180 22.2761008932 8.1004003248
Al 28.3514011368 20.2510008120 12.1506004872
Al 28.3514011368 22.2761008932 14.1757005684
Al 30.3765012180 20.2510008120 14.1757005684
Al 30.3765012180 22.2761008932 12.1506004872
Al 28.3514011368 20.2510008120 16.2008006496
Al 28.3514011368 22.2761008932 18.2259007308
Al 30.3765012180 20.2510008120 18.2259007308
Al 30.3765012180 22.2761008932 16.2008006496
Al 28.3514011368 20.2510008120 20.2510008120
Al 28.3514011368 22.2761008932 22.2761008932
Al 30.3765012180 20.2510008120 22.2761008932
Al 30.3765012180 22.2761008932 20.2510008120
Al 28.3514011368 20.2510008120 24.3012009744
Al 28.3514011368 22.2761008932 26.3263010556
Al 30.3765012180 20.2510008120 26.3263010556
Al 30.3765012180 22.2761008932 24.3012009744
Al 28.3514011368 20.2510008120 28.3514011368
Al 28.3514011368 22.2761008932 30.3765012180
Al 30.3765012180 20.2510008120 30.3765012180
Al 30.3765012180 22.2761008932 28.3514011368
Al 28.3514011368 24.3012009744 0.0000000000
Al 28.3514011368 26.3263010556 2.0251000812
Al 30.3765012180 24.3012009744 2.0251000812
Al 30.3765012180 26.3263010556 0.0000000000
Al 28.3514011368 24.3012009744 4.0502001624
Al 28.3514011368 26.3263010556 6.0753002436
Al 30.3765012180 24.3012009744 6.0753002436
Al 30.3765012180 26.3263010556 4.0502001624
Al 28.3514011368 24.3012009744 8.1004003248
Al 28.3514011368 26.3263010556 10.1255004060
Al 30.3765012180 24.3012009744 10.1255004060
Al 30.3765012180 26.3263010556 8.1004003248
Al 28.3514011368 24.3012009744 12.1506004872
Al 28.3514011368 26.3263010556 14.1757005684
Al 30.3765012180 24.3012009744 14.1757005684
Al 30.3765012180 26.3263010556 12.1506004872
Al 28.3514011368 24.3012009744 16.2008006496
Al 28.3514011368 26.3263010556 18.2259007308
Al 30.3765012180 24.3012009744 18.2259007308
Al 30.3765012180 26.3263010556 16.2008006496
Al 28.3514011368 24.3012009744 20.2510008120
Al 28.3514011368 26.3263010556 22.2761008932
Al 30.3765012180 24.3012009744 22.2761008932
Al 30.3765012180 26.3263010556 20.2510008120
Al 28.3514011368 24.3012009744 24.3012009744
Al 28.3514011368 26.3263010556 26.3263010556
Al 30.3765012180 24.3012009744 26.3263010556
Al 30.3765012180 26.3263010556 24.3012009744
Al 28.3514011368 24.3012009744 28.3514011368
Al 28.3514011368 26.3263010556 30.3765012180
Al 30.3765012180 24.3012009744 30.3765012180
Al 30.3765012180 26.3263010556 28.3514011368
Al 28.3514011368 28.3514011368 0.0000000000
Al 28.3514011368 30.3765012180 2.0251000812
Al 30.3765012180 28.3514011368 2.0251000812
Al 30.3765012180 30.3765012180 0.0000000000
Al 28.3514011368 28.3514011368 4.0502001624
Al 28.3514011368 30.3765012180 6.0753002436
Al 30.3765012180 28.3514011368 6.0753002436
Al 30.3765012180 30.3765012180 4.0502001624
Al 28.3514011368 28.3514011368 8.1004003248
Al 28.3514011368 30.3765012180 10.1255004060
Al 30.3765012180 28.3514011368 10.1255004060
Al 30.3765012180 30.3765012180 8.1004003248
Al 28.3514011368 28.3514011368 12.1506004872
Al 28.3514011368 30.3765012180 14.1757005684
Al 30.3765012180 28.3514011368 14.1757005684
Al 30.3765012180 30.3765012180 12.1506004872
Al 28.3514011368 28.3514011368 16.2008006496
Al 28.3514011368 30.3765012180 18.2259007308
Al 30.3765012180 28.3514011368 18.2259007308
Al 30.3765012180 30.3765012180 16.2008006496
Al 28.3514011368 28.3514011368 20.2510008120
Al 28.3514011368 30.3765012180 22.2761008932
Al 30.3765012180 28.3514011368 22.2761008932
Al 30.3765012180 30.3765012180 20.2510008120
Al 28.3514011368 28.3514011368 24.3012009744
Al 28.3514011368 30.3765012180 26.3263010556
Al 30.3765012180 28.3514011368 26.3263010556
Al 30.3765012180 30.3765012180 24.3012009744
Al 28.3514011368 28.3514011368 28.3514011368
Al 28.3514011368 30.3765012180 30.3765012180
Al 30.3765012180 28.3514011368 30.3765012180
Al 30.3765012180 30.3765012180 28.3514011368
