64
Lattice="10.937268664 0.000000000 0.000000000 0.000000000 10.937268664 0.000000000 0.000000000 0.000000000 10.937268664" Properties=species:S:1:pos:R:3 pbc="T T T"
Si 10.8441 0.1098 10.87843
Si 5.42494 10.82847 10.84553
Si 10.92412 5.47879 0.15872
Si 5.43405 5.51253 10.73579
Si 10.89294 0.07167 5.58356
Si 5.4772 0.00974 5.25109
Si 10.83569 5.71575 5.49557
Si 5.6416 5.43162 5.41058
Si 0.04256 2.79773 2.81735
Si 5.47052 2.66704 2.55892
Si 0.04078 8.19012 2.61802
Si 5.50224 8.13476 2.69371
Si 10.91596 2.72099 8.20149
Si 5.4648 2.59688 8.14532
Si 10.90185 8.217449999999999 8.438129999999999
Si 5.55046 8.13123 7.97094
Si 2.71839 2.94414 10.86789
Si 8.24169 2.46228 0.10038
Si 2.84815 8.18084 10.91513
Si 8.214359999999999 8.36176 0.13564
Si 2.84292 2.67689 5.44836
Si 8.188929999999999 2.814 5.4445
Si 2.70446 8.457240000000001 5.42564
Si 8.3886 8.0756 5.53184
Si 2.60947 10.92768 2.50093
Si 8.21162 10.9369 2.88717
Si 2.85239 5.57954 2.86368
Si 8.103289999999999 5.48154 2.66203
Si 2.70124 10.87916 8.382210000000001
Si 8.05381 10.80816 8.133229999999999
Si 2.49063 5.5348 8.01066
Si 8.21152 5.31441 8.475020000000001
Si 3.97053 1.30668 3.83582
Si 9.60317 1.45367 4.27988
Si 4.21545 6.9273 4.1469
Si 9.55527 6.8547 3.96071
Si 4.06554 1.38825 9.65415
Si 9.481019999999999 1.22409 9.43272
Si 4.03254 6.83272 9.309620000000001
Si 9.51243 6.84671 9.813969999999999
Si 1.35763 1.51491 1.23051
Si 6.84713 1.11756 1.3905
Si 1.53604 6.82566 1.39584
Si 6.81908 6.81105 1.23342
Si 1.37993 1.30806 6.9196
Si 6.81345 1.37243 6.67628
Si 1.28922 7.16551 6.83345
Si 7.0878 6.77064 6.96193
Si 1.45768 4.23414 4.25205
Si 6.8028 3.96482 3.95497
Si 1.25155 9.586360000000001 4.08708
Si 6.93527 9.41873 4.26061
Si 1.20937 4.14208 9.597390000000001
Si 6.80052 3.8122 9.64649
Si 1.28763 9.568020000000001 9.76032
Si 6.77002 9.375220000000001 9.506830000000001
Si 4.1228 4.30522 1.42429
Si 9.553710000000001 4.05485 1.47619
Si 4.17862 9.54049 1.36514
Si 9.63885 9.728490000000001 1.45672
Si 4.17622 4.04885 6.86539
Si 9.533670000000001 4.19361 6.85483
Si 4.20238 9.673780000000001 6.81156
Si 9.634539999999999 9.51352 6.94724
