80
Lattice="9.227526 0.0 0.0 0.0 9.227526 0.0 0.0 0.0 9.227526" Properties=species:S:1:pos:R:3 pbc="T T T"
Al 1.15344075 3.46032225 3.46032225
Al 3.46032225 1.15344075 3.46032225
Al 3.46032225 3.46032225 1.15344075
Al 1.15344075 1.15344075 1.15344075
Al 1.15344075 3.46032225 8.07408525
Al 3.46032225 1.15344075 8.07408525
Al 3.46032225 3.46032225 5.76720375
Al 1.15344075 1.15344075 5.76720375
Al 1.15344075 8.07408525 3.46032225
Al 3.46032225 5.76720375 3.46032225
Al 3.46032225 8.07408525 1.15344075
Al 1.15344075 5.76720375 1.15344075
Al 1.15344075 8.07408525 8.07408525
Al 3.46032225 5.76720375 8.07408525
Al 3.46032225 8.07408525 5.76720375
Al 1.15344075 5.76720375 5.76720375
Al 5.76720375 3.46032225 3.46032225
Al 8.07408525 1.15344075 3.46032225
Al 8.07408525 3.46032225 1.15344075
Al 5.76720375 1.15344075 1.15344075
Al 5.76720375 3.46032225 8.07408525
Al 8.07408525 1.15344075 8.07408525
Al 8.07408525 3.46032225 5.76720375
Al 5.76720375 1.15344075 5.76720375
Al 5.76720375 8.07408525 3.46032225
Al 8.07408525 5.76720375 3.46032225
Al 8.07408525 8.07408525 1.15344075
Al 5.76720375 5.76720375 1.15344075
Al 5.76720375 8.07408525 8.07408525
Al 8.07408525 5.76720375 8.07408525
Al 8.07408525 8.07408525 5.76720375
Al 5.76720375 5.76720375 5.76720375
O 0 0 2.3068815
O 0 2.3068815 0
O 2.3068815 0 0
O 2.3068815 2.3068815 0
O 2.3068815 0 2.3068815
O 0 2.3068815 2.3068815
O 0 0 6.9206445
O 0 2.3068815 4.613763
O 2.3068815 0 4.613763
O 2.3068815 2.3068815 4.613763
O 2.3068815 0 6.9206445
O 0 2.3068815 6.9206445
O 0 4.613763 2.3068815
O 0 6.9206445 0
O 2.3068815 4.613763 0
O 2.3068815 6.9206445 0
O 2.3068815 4.613763 2.3068815
O 0 6.9206445 2.3068815
O 0 4.613763 6.9206445
O 0 6.9206445 4.613763
O 2.3068815 4.613763 4.613763
O 2.3068815 6.9206445 4.613763
O 2.3068815 4.613763 6.9206445
O 0 6.9206445 6.9206445
O 4.613763 0 2.3068815
O 4.613763 2.3068815 0
O 6.9206445 0 0
O 6.9206445 2.3068815 0
O 6.9206445 0 2.3068815
O 4.613763 2.3068815 2.3068815
O 4.613763 0 6.9206445
O 4.613763 2.3068815 4.613763
O 6.9206445 0 4.613763
O 6.9206445 2.3068815 4.613763
O 6.9206445 0 6.9206445
O 4.613763 2.3068815 6.9206445
O 4.613763 4.613763 2.3068815
O 4.613763 6.9206445 0
O 6.9206445 4.613763 0
O 6.9206445 6.9206445 0
O 6.9206445 4.613763 2.3068815
O 4.613763 6.9206445 2.3068815
O 4.613763 4.613763 6.9206445
O 4.613763 6.9206445 4.613763
O 6.9206445 4.613763 4.613763
O 6.9206445 6.9206445 4.613763
O 6.9206445 4.613763 6.9206445
O 4.613763 6.9206445 6.9206445
