286
Lattice="9.78 0.0 0.0 0.0 11.38 0.0 0.0 0.0 27.0" Properties=species:S:1:pos:R:3 pbc="T T T"
H 8.414687450000001 4.81514668 20.23455276
H 5.50981327 7.71693778 21.32805006
H 3.01198601 6.10601627 24.39523116
H 3.49185472 3.9150779 24.56658828
H 5.5080648 2.09105053 25.81339536
H 6.15632183 3.28070185 24.98656005
H 1.10827899 7.54113931 16.52475762
H 9.030849359999999 1.86318128 17.71556859
H 3.66920798 0.99964549 24.42340998
H 0.66185201 10.80214864 24.07044465
H 9.271738879999999 3.38529748 18.27879507
H 9.298021840000001 2.90831934 21.52039698
H 2.39293588 5.10320077 22.9757634
H 3.38220322 1.67893032 21.3759027
H 7.14406213 4.42983274 23.88414465
H 0.55478634 4.208056 21.9267324
H 0.84902733 6.60030281 24.3427275
H 1.10701453 4.77441379 26.43886602
H 4.51581769 3.18824208 20.98535148
H 6.98799328 5.96399421 21.13406478
H 8.98590811 11.32687315 23.4424071
H 9.756006729999999 1.55808599 24.64025292
H 1.92774079 2.45241014 24.7784913
H 6.06628285 4.00891715 22.76498466
H 6.35843267 3.81789418 20.58939837
H 7.41735102 5.43759843 19.12264011
H 2.29602077 7.38652653 26.25144633
H 8.09772205 8.86564078 23.37552
H 5.89090906 1.40679958 17.34895989
H 5.66348132 10.97846432 18.65372058
H 9.079001870000001 3.90328037 24.46753041
H 3.13082602 3.87544409 21.47576112
H 8.36647293 9.59028766 25.5958002
H 8.40521992 0.87276611 21.12345756
H 1.20748164 8.25142076 21.02745393
H 9.56735786 8.38547966 18.17654958
H 5.79053956 0.4245367 24.0533982
H 6.39134413 6.01205958 22.50862128
H 9.52971464 2.44270812 25.86879045
H 2.66327288 9.3579521 24.40204326
H 8.977080190000001 5.58704025 24.24394422
H 7.37487727 5.28928095 26.29958652
H 2.24310911 0.23726617 21.04851906
H 4.58103327 7.63291912 19.04965587
H 4.83319483 9.10533897 20.74311126
H 4.18896041 10.84701907 23.96877426
H 3.59632155 0.37884657 22.39402869
H 2.6738477 7.52540156 23.95386837
H 4.77425585 8.3710843 24.23627811
H 8.86121634 4.24376803 22.78251225
H 1.9054509 5.86300035 21.74341239
H 8.90153409 2.22544276 19.42576101
H 0.57677041 0.8303189399999999 17.12804697
H 7.13746816 0.21484791 22.57341831
H 7.79482421 10.30689183 21.8418822
H 1.5683831 9.62809805 25.52237073
H 7.12493166 10.15230807 24.83847153
H 8.11807267 9.659309289999999 17.7029037
H 8.16475095 7.37976408 18.28223811
H 9.72806145 9.04298169 21.66271344
H 7.68917018 8.009566400000001 22.08576321
H 4.79001691 4.6226434 24.14364165
H 4.15131249 2.53121562 17.94409902
H 2.90835694 2.42453301 26.02444329
H 6.28878166 6.35753953 24.15400641
H 9.345272550000001 8.68579308 19.70947431
H 0.94706185 10.36910698 20.69523756
H 6.12315463 10.94647184 20.71587501
H 4.68211221 11.29118172 20.68920198
H 6.96479942 0.68629503 24.85855656
H 6.88437457 7.67695585 24.6870396
H 9.228725259999999 7.46668213 26.06470812
H 9.50944823 7.44461187 23.64611832
H 4.20360938 8.818074770000001 22.74750837
H 3.35474939 7.47804256 21.02909337
H 4.08899541 5.01374339 26.38632726
H 5.87880289 7.29960063 26.22643029
H 6.52031143 2.30454957 21.15608976
H 0.10973219 1.09432754 20.78206902
H 0.62240116 2.94415952 12.51946503
H 1.39962089 5.81225363 10.7389152
H 4.01345576 8.00956412 17.68462794
H 4.89926909 10.50026899 17.36056611
H 3.24349993 11.06691151 14.53322466
H 1.57336366 11.35612522 19.47227445
H 4.50364159 9.894168479999999 10.80756648
H 2.94873377 7.86010239 10.52814564
H 0.26851362 4.07976129 14.02664607
H 2.6746966 10.92955388 17.64603684
H 3.2154594 0.21980777 10.79401707
H 4.30801489 1.08131656 11.68186401
H 4.15698186 4.83139903 10.40488794
H 2.26532546 9.618984599999999 12.11622543
H 2.56540911 1.1402381 17.96760522
H 0.02297166 4.56179716 16.59129804
H 5.75047306 3.38371782 16.09692615
H 6.76519265 2.5180831 18.02059326
H 8.778609469999999 3.70663829 12.39643521
H 3.45247095 3.00655219 15.23401884
H 8.74339208 1.44415011 15.36658857
H 6.93094311 10.46608039 17.05255092
H 2.59598618 2.9669746 16.52966271
H 1.40525329 3.95988016 15.08224239
H 6.18410926 7.33477086 13.46212629
H 6.88418327 5.81436018 12.04476345
H 0.87977975 5.21873349 17.8243038
H 0.64388029 5.9627192 14.98623417
H 7.8958387 9.68114467 12.12048306
H 2.4781185 1.1917903 15.01590771
H 3.18674992 2.97955245 19.12169916
H 9.051174939999999 0.16061755 16.92738351
H 9.02326751 0.75744722 14.07767364
H 0.35875661 10.74785864 12.94085376
H 1.63317022 6.27841314 12.27256947
H 4.45821535 4.24355238 13.87686978
H 2.52684344 9.188619859999999 16.89458202
H 8.420812079999999 9.389625710000001 15.55468029
H 2.91133358 7.72470997 13.00043844
H 3.10641583 6.05924504 13.43888982
H 2.43564915 4.56046672 19.08611127
H 2.39157098 6.65023279 20.04446034
H 3.61563715 9.699240120000001 12.94809786
H 5.88233474 6.85138476 10.94869413
H 5.28788199 9.16085425 14.39939403
H 5.7870837 1.27220013 13.4872047
H 3.84617659 9.53236334 15.93486945
H 5.06314385 10.71590804 14.40962163
H 7.3187831 8.41521253 14.17365081
H 5.30964797 5.48840512 12.51260892
H 3.61145786 4.03671064 12.53088522
H 5.15430372 3.28712415 11.84897052
H 6.31888793 2.26978538 11.48781852
H 7.03973212 0.93862388 14.35282875
H 8.82672286 2.24814415 13.72091859
H 9.24494745 5.28140099 11.64450762
H 9.44731178 8.17115295 15.02064999
H 9.63346479 7.55735023 11.65128462
H 7.92983877 4.73296749 10.80307908
H 2.17168783 3.21987017 11.019564
H 2.48217759 2.1149219 12.00728826
H 7.57236803 0.37189931 11.49543252
H 8.48153434 1.78660469 11.38561569
H 1.96259534 7.43984604 17.84939355
H 1.2819624 11.18728402 14.24243223
H 6.9414039 10.67828246 13.11709086
H 8.497669480000001 8.14747083 10.89204813
H 5.64557679 8.21124708 10.09131939
H 6.12057711 9.877827249999999 11.23353009
H 8.60215137 5.97051165 17.63957898
H 6.88013621 6.59975248 17.12153214
H 5.33172485 4.83966171 15.74796492
H 6.04395941 7.11072995 15.50265156
H 1.2729824 7.1945102 14.44400721
H 9.50098785 9.841761869999999 14.20286049
H 3.08880038 5.87940292 18.54864414
H 5.25386304 6.73892146 16.84064412
H 0.07583520000000001 9.709601380000001 11.44423836
H 0.49190671 11.09446249 10.79797257
O 6.81978422 6.61083398 21.89483595
O 5.72981124 7.62953243 0.17050176
O 6.28449656 2.71151966 25.79960295
O 1.39273097 8.104165950000001 17.36106291
O 0.05421866 0.25536117 23.8424931
O 9.40727021 3.92539353 21.84876666
O 3.53639 3.28469634 20.79996435
O 9.65043945 6.82461479 24.3271026
O 1.00530517 4.90035807 0.41825457
O 6.12471072 4.45769599 23.64290073
O 2.88764945 2.32325636 25.020549
O 3.95334397 4.81032657 24.59022246
O 7.47853656 5.00456121 20.0422242
O 2.49422235 7.68308671 0.20819052
O 5.62551468 11.10895605 17.67887343
O 8.590246369999999 4.64937411 24.03887706
O 0.15024457 2.56762069 24.92181567
O 0.47369332 9.001265679999999 20.84154273
O 6.74345161 0.13276386 24.0348546
O 1.76248911 9.7968045 24.5717766
O 7.43803064 5.20763731 0.28119366
O 3.47422617 0.70112851 21.41707338
O 4.69122844 8.248665770000001 21.14064144
O 4.29965905 0.44743281 23.87942559
O 2.37314673 6.78836266 24.54487461
O 1.97249759 4.93167731 22.1067522
O 8.664270119999999 2.63664358 18.44884215
O 7.51863877 11.24906934 21.7099062
O 7.54952009 9.334082090000001 25.12691064
O 8.84389331 8.56949335 18.85395501
O 8.27147774 8.809526229999999 22.39391907
O 6.11287536 3.24132557 21.29831739
O 4.08900851 8.861297029999999 23.75799903
O 9.05108662 1.6722382 20.75347656
O 5.32586839 10.6697066 20.19441591
O 6.05049666 7.15253564 24.69735117
O 9.0033656 7.67722021 0.02086641
O 2.37924935 7.16737311 20.8813842
O 4.16104897 5.00542142 0.35482752
O 1.3184906 0.01358487 20.46243654
O 8.301774999999999 4.86613227 11.70709497
O 3.45062116 9.54221911 16.87972581
O 2.14043036 0.25041656 18.10107567
O 2.73835394 7.74403196 9.59983083
O 3.18896 2.66397367 18.13844124
O 3.4568832 0.54509221 11.65284684
O 4.21845972 4.66018613 9.44460378
O 0.57905189 4.49635271 14.87494449
O 5.98282698 2.37732604 17.4199761
O 8.406994900000001 1.46757823 14.40382365
O 9.47307573 1.00429149 16.68309885
O 2.52430905 2.75815421 15.4563552
O 5.9679603 6.15995997 12.18867156
O 9.76785735 4.93310243 17.51817942
O 7.69786509 1.30459341 11.0319246
O 5.24595669 3.90001636 15.47680689
O 0.35443894 10.83538393 13.94047395
O 0.86722419 6.14696106 11.50406388
O 7.94957305 10.26804802 16.90409115
O 2.47730549 6.82729922 13.29626232
O 2.22909339 5.45380173 18.78406902
O 3.0891951 9.110344810000001 12.34102284
O 5.84449201 7.21993539 9.966146309999999
O 4.55269934 9.87456233 14.62354317
O 6.33209376 8.093281770000001 14.11264728
O 4.09800201 4.70232752 13.07164068
O 5.52257891 2.36057718 12.03364836
O 6.06554329 0.6520303 14.18753718
O 0.6606614 6.99463939 15.17790258
O 8.993149710000001 8.30426117 11.72723778
O 2.23236989 3.07486542 11.98808856
O 9.410437659999999 2.92423575 12.86801748
O 2.48093016 0.23136428 14.67068058
O 7.29056711 10.46780856 12.18487482
O 5.42088588 9.591225250000001 10.55336877
O 7.77091641 6.45978758 17.89637679
O 5.98070257 6.49985258 16.27866018
O 8.78203208 8.93072368 14.71024503
O 4.26409095 7.24502511 18.24320043
O 0.74477243 10.44039266 11.49352308
Mg 9.20243838 0.51668125 1.19908458
Mg 5.81862146 0.13753003 1.32945813
Mg 2.82475808 0.1848219 0.89853921
Mg 9.06448923 5.94202 1.10294703
Mg 8.99508732 4.15074609 8.56324899
Mg 9.189786679999999 3.7365224 3.73165758
Mg 9.20904174 9.799488930000001 8.30721312
Mg 9.01480263 9.721998640000001 3.55573611
Mg 7.40657542 3.05332934 0.9207980099999999
Mg 7.65455593 1.12435265 8.77990698
Mg 7.54205893 1.2307074 3.5579763
Mg 7.31770593 8.707427259999999 0.76097448
Mg 7.38149529 7.16758057 8.34906636
Mg 7.60313533 6.78720907 3.60962082
Mg 5.80480516 5.85803287 1.19788875
Mg 5.97942002 3.86839168 8.620648020000001
Mg 6.00714886 3.87939307 3.74227587
Mg 4.11834607 3.09379423 0.95515956
Mg 4.41216876 1.29798653 8.36466912
Mg 4.20088399 1.28528952 3.74950269
Mg 5.95273099 10.02261215 8.35309638
Mg 6.00401075 9.50943822 3.47299137
Mg 4.09108383 8.756316869999999 0.6152638499999999
Mg 4.13985023 6.57429792 8.68004451
Mg 4.28030394 6.83181594 3.61228491
Mg 2.61172778 5.99314351 1.12335363
Mg 2.55547351 3.94727807 8.428386959999999
Mg 2.62661206 4.10462933 3.79991844
Mg 0.9843702 3.05196658 1.36596942
Mg 0.91520233 1.48836573 8.47510344
Mg 0.962832 1.00207444 3.5706393
Mg 2.60982928 9.545482209999999 8.43601176
Mg 2.7680335 9.804816929999999 3.51877527
Mg 0.74978839 8.80023332 0.9805552199999999
Mg 0.88421244 6.80431082 8.52297606
Mg 1.06712084 6.78954004 3.6338328
Mg 8.972683 0.38211627 5.90430789
Mg 5.73454857 0.25946127 6.14623005
Mg 2.46968628 0.05025875 6.00437043
Mg 9.07491158 5.85878759 6.07500135
Mg 7.44307731 2.82891391 6.32521575
Mg 7.52260984 8.840623900000001 5.90768046
Mg 5.85343465 6.02215921 6.11526159
Mg 4.2572119 3.17503548 6.01164936
Mg 4.40028547 8.80898784 5.98025106
Mg 2.70645246 6.15358012 6.23078892
Mg 0.9258324 3.06861985 6.09900678
Mg 1.10747321 8.74415757 5.92819047
