648
Lattice="18.6206 0 0 0 18.6206 0 0 0 18.6206" Properties=species:S:1:pos:R:3 pbc="T T T"
O 2.3 6.28 1.13
H 1.37 6.26 1.5
H 2.31 5.89 0.21
O 2.25 2.75 9.960599999999999
H 2.6 2.58 10.8806
H 1.37 2.3 9.8406
O 0.19 3.68 6.470000000000001
H 17.9906 4.109999999999999 6.86
H 18.5306 2.95 5.84
O 5.69 12.7506 11.6506
H 4.76 12.6806 11.2806
H 5.8 13.6406 12.0906
O 15.5506 15.1106 7.029999999999999
H 14.9806 14.9506 7.84
H 14.9606 15.2106 6.23
O 17.4306 6.18 8.56
H 17.7606 7.119999999999999 8.56
H 17.9406 5.64 9.220000000000001
O 11.3506 7.029999999999999 7.17
H 11.9206 7.81 6.92
H 10.7506 7.29 7.930000000000001
O 17.5506 6.07 2.31
H 17.4306 5.94 1.32
H 17.2506 5.26 2.8
O 7.68 11.4406 10.2306
H 6.899999999999999 11.6106 10.8306
H 8.02 12.3106 9.8706
O 8.5 7.98 18.2306
H 8.459999999999999 8.74 0.26
H 8.720000000000001 8.34 17.3206
O 6.850000000000001 10.1206 6.65
H 7.54 9.960599999999999 7.35
H 6.12 10.6906 7.029999999999999
O 6.86 11.6106 18.0306
H 7.46 12.4006 18.1706
H 6 11.9206 17.6206
O 3.35 14.3506 10.6106
H 2.57 14.0406 10.0806
H 3.93 14.9306 10.0406
O 14.6006 15.0506 13.3906
H 14.8406 15.9906 13.6506
H 14.4406 14.5106 14.2106
O 4.38 3.92 14.9906
H 5.2 3.36 15.0806
H 3.57 3.34 15.0306
O 16.0306 4.47 7.37
H 15.2906 4.93 6.870000000000001
H 16.5406 5.15 7.9
O 2.31 17.1306 4.83
H 2.65 17.9006 5.37
H 2.75 17.1306 3.93
O 11.2706 13.4106 16.9006
H 11.7406 13.4106 17.7806
H 10.7906 12.5406 16.7906
O 2.3 14.3406 5.380000000000001
H 2.04 15.3006 5.380000000000001
H 1.59 13.8006 5.83
O 2.4 10.9106 8.859999999999999
H 2.54 10.0706 9.379999999999999
H 1.85 11.5506 9.41
O 6.2 17.8606 14.3906
H 5.28 17.6906 14.7406
H 6.48 0.16 14.6506
O 6.06 9.640599999999999 1.23
H 6.13 10.4806 0.6900000000000001
H 6.52 9.7706 2.11
O 15.9406 1.14 14.8006
H 15.7606 1.81 14.0806
H 15.9106 1.6 15.6906
O 1.22 6.43 5.629999999999999
H 0.77 5.550000000000001 5.8
H 1.21 6.97 6.470000000000001
O 18.4206 17.6706 3.59
H 0.34 17.3806 4.39
H 0.1 18.5706 3.3
O 0.27 15.9606 1.17
H 0.08 15.0006 1.38
H 18.5606 16.5406 1.92
O 16.8906 9.220000000000001 6.12
H 17.8406 8.93 6.2
H 16.8106 9.869999999999999 5.37
O 16.4106 11.0806 4.32
H 17.2706 11.1006 3.8
H 16.5506 11.5506 5.2
O 1.13 7.37 15.9706
H 2.01 7.24 16.4206
H 1 8.34 15.7506
O 6.13 13.6506 7.26
H 5.64 12.7806 7.35
H 5.899999999999999 14.0806 6.390000000000001
O 12.9306 12.2806 14.2306
H 13.3006 11.5506 13.6506
H 13.4506 12.3306 15.0806
O 8.09 0.04 5.02
H 8.49 0.95 4.93
H 7.09 0.12 5.08
O 1.97 9.7606 12.6406
H 2.86 9.310599999999999 12.5006
H 1.24 9.1106 12.4506
O 15.2506 9.990600000000001 1.9
H 14.6206 9.230600000000001 2.03
H 15.7306 10.1706 2.76
O 11.8706 17.9206 16.1606
H 12.1106 18.5206 15.4006
H 11.9406 16.9706 15.8606
O 3.17 2.51 18.0106
H 3.88 3.22 18.0706
H 2.29 2.9 18.2906
O 14.6606 14.1706 9.5306
H 14.0706 14.2306 10.3306
H 14.5106 13.2906 9.070600000000001
O 16.6706 17.1406 5.72
H 16.2606 16.9106 4.84
H 16.4906 16.4006 6.37
O 5.98 7.29 2.7
H 6.22 7.98 2.02
H 5.2 7.62 3.24
O 12.8106 3.45 9.4406
H 11.9506 2.95 9.310599999999999
H 13.4306 2.91 10.0006
O 15.7606 16.6206 3.07
H 16.6506 17.0806 3.1
H 15.5506 16.3806 2.12
O 8.07 6.05 14.6506
H 7.6 6.02 15.5406
H 7.56 5.5 13.9906
O 13.9406 4.69 16.7406
H 13.7406 5.12 17.6206
H 14.7206 4.069999999999999 16.8306
O 9.730599999999999 8.9 15.7206
H 10.1906 8.06 15.4306
H 9.1706 9.24 14.9706
O 9.910599999999999 4.1 12.4206
H 9.140599999999999 4.44 12.9606
H 9.570599999999999 3.59 11.6306
O 10.4106 7.01 4.29
H 10.6706 6.97 5.25
H 9.560599999999999 6.5 4.149999999999999
O 0.76 8.110000000000001 7.890000000000001
H 1.75 7.99 7.98
H 0.52 9.06 8.100000000000001
O 1.3 18.2106 15.7106
H 1.2 18.0606 16.7006
H 0.4399999999999999 18.5706 15.3506
O 8.65 3.48 1.95
H 9.24 4.109999999999999 1.46
H 8.84 2.54 1.66
O 17.1906 5.85 18.3106
H 16.9306 6.74 17.9506
H 17.1706 5.17 17.5806
O 13.6206 11.4406 5.45
H 14.4506 11.1506 4.97
H 13.1306 12.1106 4.89
O 5.5 1.96 8.85
H 5.45 1.91 9.85
H 5.52 2.92 8.56
O 10.0806 14.5606 4.77
H 9.6206 15.2806 4.25
H 10.0406 14.7606 5.75
O 3.51 18.0106 8.529999999999999
H 4.01 17.1506 8.59
H 4.16 0.16 8.5
O 17.9506 10.6606 8.73
H 17.3306 10.5106 7.970000000000001
H 17.4306 10.7706 9.58
O 12.2706 15.5006 15.0606
H 12.3306 14.7306 15.7006
H 11.7506 15.2406 14.2606
O 3.21 9.430599999999998 2.42
H 4.03 9.820599999999999 2
H 2.94 8.610600000000002 1.93
O 14.5806 7.35 7.279999999999999
H 14.5306 6.7 8.030000000000001
H 15.3806 7.94 7.41
O 4.61 12.6606 17.2706
H 4.109999999999999 12.6706 16.4106
H 3.98 12.4806 18.0306
O 11.1106 17.7606 2.37
H 10.5106 17.1406 2.87
H 11.4206 17.3206 1.52
O 2.02 2.85 14.9806
H 1.22 3.45 14.8506
H 1.92 2.36 15.8406
O 16.3206 13.7706 0.8100000000000001
H 16.0006 14.7106 0.71
H 15.5606 13.1406 0.6900000000000001
O 4.640000000000001 17.4306 3.23
H 4.97 17.8206 4.09
H 5.4 17.3606 2.58
O 14.0006 1.07 4.26
H 13.7606 0.7000000000000001 3.36
H 14.9906 1.23 4.3
O 2.49 17.8506 12.4106
H 3.06 17.2006 12.9106
H 2.33 17.5206 11.4806
O 9.400599999999999 16.9806 9.040000000000001
H 10.2006 16.4106 9.25
H 8.910600000000001 16.5806 8.27
O 3.82 7 4.8
H 4.27 6.1 4.77
H 2.88 6.89 5.13
O 15.4706 2.22 17.2906
H 15.4206 2.59 18.2106
H 14.7506 1.53 17.1706
O 6.14 1.22 1.17
H 7.119999999999999 1 1.24
H 5.83 1.05 0.24
O 7.81 2.64 17.4906
H 8.48 2.03 17.9206
H 7.08 2.83 18.1406
O 8.880000000000001 15.1406 11.9506
H 8.65 14.8906 11.0106
H 9.49 14.4506 12.3406
O 13.5106 5.899999999999999 14.3306
H 13.7906 5.470000000000001 15.1806
H 13.7606 6.86 14.3406
O 8.030000000000001 14.0206 9.24
H 8.93 14.1606 8.82
H 7.32 14.0406 8.529999999999999
O 9.220000000000001 5.03 8.99
H 8.970000000000001 4.94 8.030000000000001
H 9.699999999999999 4.21 9.300000000000001
O 5.390000000000001 0.64 5.12
H 4.58 0.65 5.699999999999999
H 5.42 1.47 4.57
O 14.3406 11.8806 0.41
H 14.6606 11.1206 0.98
H 13.4206 12.1506 0.71
O 2.97 0.35 1.71
H 3.46 1.19 1.5
H 3.59 18.3206 2.16
O 9.3506 2.36 4.8
H 8.8706 2.77 4.02
H 10.3406 2.34 4.61
O 10.7606 6.83 14.6406
H 9.960599999999999 6.22 14.6706
H 11.5706 6.3 14.4006
O 12.2706 15.7006 7.930000000000001
H 12.4806 16.4406 7.279999999999999
H 12.9506 15.7006 8.66
O 4.59 11.5206 7.41
H 3.88 11.2506 8.06
H 4.33 11.2406 6.48
O 12.7106 17.9706 5.91
H 13.1506 18.6106 5.27
H 12.2106 18.4906 6.61
O 10.3206 5.49 0.16
H 9.910599999999999 6.31 18.3906
H 10.9606 5.75 0.8899999999999999
O 0.78 5.56 13.8606
H 1.7 5.550000000000001 13.4506
H 0.72 6.3 14.5306
O 5.61 2.22 11.4706
H 5.99 1.38 11.8406
H 4.73 2.41 11.9106
O 8.66 4.54 6.42
H 8.34 5.26 5.8
H 8.9 3.73 5.89
O 10.1706 0.39 7.53
H 9.4506 0.4399999999999999 6.840000000000001
H 9.9306 18.3206 8.219999999999999
O 14.2906 11.7306 8.67
H 13.7406 10.8906 8.6
H 14.5506 12.0206 7.75
O 14.6606 5.899999999999999 9.9206
H 14.3606 4.95 9.990600000000001
H 15.3906 6.06 10.5806
O 18.5706 8.33 3.77
H 0.37 7.69 4.41
H 18.1906 7.82 2.99
O 4.88 13.8506 1.74
H 4.01 13.7006 2.21
H 4.71 14.1106 0.79
O 16.6406 12.8006 6.57
H 17.6306 12.8806 6.710000000000001
H 16.1906 13.6406 6.879999999999999
O 13.9006 5.75 0.78
H 13.3606 5.540000000000001 1.59
H 14.8106 5.34 0.8699999999999999
O 5.27 2.56 3.28
H 5.540000000000001 1.97 2.53
H 5.27 3.51 2.97
O 17.5406 12.2306 15.8806
H 18.4506 11.8406 15.7506
H 17.6206 13.1906 16.1206
O 10.6406 13.4706 13.4006
H 9.8406 13.2406 13.9506
H 11.4706 13.2106 13.8906
O 15.9206 16.2906 16.2506
H 16.1906 16.6306 15.3506
H 16.7106 15.9106 16.7106
O 11.1106 11.9506 11.0006
H 10.7106 12.3906 11.8106
H 10.7006 12.3206 10.1706
O 16.3806 10.9906 10.7906
H 16.4306 11.8006 11.3806
H 15.5206 11.0106 10.2806
O 9.15 0.8899999999999999 14.0206
H 9.399999999999999 0.6900000000000001 13.0706
H 9.869999999999999 1.45 14.4406
O 9.800599999999999 11.1606 17.1906
H 8.810599999999999 11.2206 17.2906
H 10.0306 10.3606 16.6306
O 7.05 10.5006 3.68
H 6.909999999999999 10.5706 4.67
H 7.890000000000001 9.990600000000001 3.5
O 4.1 8.129999999999999 12.5106
H 4.96 8.25 13.0106
H 3.68 7.26 12.7806
O 12.7406 3.86 12.6206
H 12.9506 4.600000000000001 13.2606
H 11.8506 4.03 12.1906
O 0.64 15.6406 13.3106
H 0.18 16.4606 12.9706
H 1.62 15.8306 13.4006
O 3.67 11.0006 5.01
H 3.6 11.8306 4.45
H 3.71 10.2006 4.41
O 5.659999999999999 5.37 8.65
H 5.779999999999999 6.029999999999999 7.91
H 6.12 5.709999999999999 9.48
O 12.5206 13.4806 3.88
H 13.0206 14.2506 4.28
H 11.5706 13.5006 4.2
O 12.7206 14.4506 11.4206
H 13.1906 14.5806 12.2906
H 12.0606 13.7106 11.5106
O 15.8206 6.390000000000001 4.72
H 15.5106 7 5.45
H 16.3206 6.909999999999999 4.03
O 3.54 15.1006 13.2906
H 3.33 14.6606 12.4206
H 4.51 15.3606 13.3206
O 4.02 7.51 15.9806
H 4.699999999999999 8.06 15.5106
H 4.42 6.630000000000001 16.2506
O 15.8706 7.79 16.7006
H 14.9506 8.17 16.6506
H 16.4706 8.26 16.0506
O 10.1306 1.05 17.7006
H 10.1906 1.9 17.1806
H 10.4506 0.29 17.1306
O 5.04 0.5 17.4006
H 4.62 18.5506 16.7006
H 4.38 1.19 17.7206
O 5.73 8.699999999999999 10.2906
H 6.17 9.59 10.2006
H 5.1 8.699999999999999 11.0606
O 13.6006 8.619999999999999 10.4506
H 12.8506 8.619999999999999 9.7906
H 13.9706 7.7 10.5406
O 12.0906 5.25 2.75
H 12.2206 4.41 3.29
H 11.8006 5.99 3.35
O 3.07 2.13 12.3106
H 2.84 2.5 13.2106
H 2.77 1.18 12.2506
O 0.37 13.1006 12.8206
H 0.8999999999999999 12.6106 13.5006
H 0.59 14.0806 12.8706
O 7.32 6.34 10.6406
H 7.91 6.08 9.880599999999999
H 7.039999999999999 7.3 10.5306
O 17.2806 9.3506 18.5406
H 16.8206 9.2806 17.6506
H 16.6606 9.7906 0.5800000000000001
O 3.07 0.63 6.18
H 2.96 1.57 6.51
H 3.02 0 6.949999999999999
O 16.2206 3.67 3.74
H 16.2406 2.91 4.38
H 15.7406 4.44 4.14
O 10.2306 7.66 9.660599999999999
H 10.3806 7.87 10.6206
H 9.9306 6.710000000000001 9.570599999999999
O 9.800599999999999 15.7306 17.0006
H 9.6006 16.1706 16.1206
H 10.1906 14.8206 16.8406
O 18.5906 15.1806 16.0506
H 0.11 15.4506 15.1006
H 0.8 15.4006 16.5806
O 3.5 8.98 18.0406
H 4.26 9.42 18.5206
H 3.85 8.51 17.2206
O 15.4006 2.74 1.25
H 14.7906 1.99 1.48
H 15.6206 3.26 2.08
O 13.0306 8.379999999999999 0.42
H 13.3706 7.45 0.5700000000000001
H 13.2106 8.65 18.0906
O 10.6806 13.3306 8.49
H 10.7506 12.4906 7.94
H 11.3006 14.0206 8.129999999999999
O 3.19 8.100000000000001 9.490599999999999
H 4.12 8.459999999999999 9.5406
H 3.13 7.25 10.0106
O 3.39 5.09 10.0606
H 2.87 4.26 9.890599999999999
H 4.16 5.140000000000001 9.420599999999999
O 5.11 4.149999999999999 18.0806
H 4.93 4.600000000000001 0.34
H 5.53 4.8 17.4506
O 11.3806 3.8 16.7806
H 10.9306 4.43 17.4206
H 12.3106 4.109999999999999 16.6106
O 11.6006 2.07 14.7706
H 11.6006 2.71 15.5406
H 11.8806 2.55 13.9406
O 0.08 13.2606 2
H 17.7706 13.4706 1.69
H 0.18 12.2706 2.13
O 0.8799999999999999 18.0106 9.27
H 0.46 17.1506 9
H 1.82 18.0406 8.93
O 5.04 15.6806 9.1
H 5.699999999999999 16.4206 9.190000000000001
H 5.48 14.8906 8.68
O 10.0206 7.960000000000001 12.3806
H 10.4306 7.640000000000001 13.2406
H 9.060600000000001 7.69 12.3506
O 0.4 5.44 11.1406
H 1.25 5.11 10.7306
H 0.53 5.590000000000001 12.1206
O 1.89 5.2 17.2206
H 2.48 4.8 16.5206
H 1.31 5.91 16.8106
O 13.6906 9.500599999999999 16.6006
H 14.0806 10.3906 16.8006
H 13.7906 9.300599999999999 15.6306
O 8.149999999999999 5.72 3.25
H 8.219999999999999 4.83 2.79
H 7.21 6.06 3.17
O 16.5706 6.04 12.0606
H 16.1906 5.350000000000001 12.6806
H 17.3906 5.68 11.6206
O 2.52 15.6406 17.4406
H 2.22 16.2106 18.2006
H 2.45 14.6706 17.7006
O 6.710000000000001 4.640000000000001 12.6906
H 6.37 3.75 12.3906
H 6.97 5.18 11.8906
O 9.300000000000001 16.7806 14.6506
H 9.06 16.6006 13.7006
H 9.6 17.7206 14.7506
O 4.73 5 1.91
H 5.34 5.8 1.95
H 3.78 5.31 1.98
O 1.59 11.3706 14.6606
H 1.81 10.7606 15.4206
H 1.69 10.8806 13.8006
O 13.4706 10.5906 12.3406
H 13.7106 9.960599999999999 11.6006
H 12.5706 10.9906 12.1606
O 13.0206 8.550000000000001 3.09
H 12.1606 8.24 3.51
H 12.9806 8.41 2.1
O 17.5906 17.4706 11.5406
H 18.2006 17.7706 10.8106
H 17.2106 16.5806 11.3206
O 12.5206 17.3106 11.2806
H 13.3606 17.3606 10.7406
H 12.2906 16.3506 11.4606
O 0.8300000000000001 12.5806 10.2206
H 0.78 12.5706 11.2206
H 0 12.1706 9.8406
O 6.879999999999999 16.6206 17.1606
H 6.32 17.4306 17.2506
H 7.4 16.6606 16.3006
O 9.030000000000001 0.8599999999999999 1.33
H 9.539999999999999 0.8699999999999999 0.47
H 9.59 0.4399999999999999 2.04
O 17.2606 1.35 5.23
H 17.9906 1.18 4.56
H 16.9506 0.48 5.61
O 13.8806 15.7306 4.77
H 14.5506 15.8506 4.03
H 13.4806 16.6206 5
O 1.3 17.9406 18.5106
H 0.8899999999999999 17.2006 0.42
H 1.94 18.4506 0.47
O 12.8006 9.27 6.720000000000001
H 13.4006 8.459999999999999 6.74
H 13.2006 9.960000000000001 6.12
O 8.299999999999999 12.7306 14.2206
H 8.25 13.0606 15.1706
H 7.44 12.9206 13.7606
O 6.720000000000001 16.1606 1.54
H 6.81 16.2606 0.55
H 6.32 15.2706 1.75
O 16.5006 17.2006 13.9406
H 17.0306 17.3006 13.1006
H 16.2306 18.1006 14.2806
O 18.4106 1.75 9.630599999999999
H 0.18 0.8999999999999999 9.270599999999998
H 17.4306 1.77 9.4406
O 2.63 3.26 7.199999999999999
H 1.84 3.77 6.86
H 2.54 3.11 8.18
O 11.9406 16.1206 0.31
H 12.0006 15.1906 0.68
H 11.3506 16.1206 18.1306
O 8.219999999999999 10.0206 13.7206
H 8.619999999999999 10.0106 12.8006
H 8.32 10.9406 14.1206
O 9.16 9.1 2.91
H 9.789999999999999 9.48 2.23
H 9.559999999999999 8.27 3.3
O 15.0406 16.0706 0.4399999999999999
H 14.1206 16.4406 0.51
H 15.4206 16.2706 18.1606
O 3.72 12.8806 14.9006
H 3.59 13.8106 14.5606
H 2.88 12.3606 14.7706
O 16.1406 12.9206 12.8906
H 16.7406 12.9506 13.6906
H 15.3906 13.5606 13.0206
O 10.3906 10.9806 6.959999999999999
H 9.6906 10.5106 7.5
H 10.9806 10.3006 6.53
O 10.1406 2.36 9.710599999999999
H 10.0606 2 8.7806
H 10.1206 1.6 10.3606
O 5.899999999999999 14.8706 4.91
H 6.32 14.2906 4.21
H 5.460000000000001 15.6606 4.47
O 17.0906 3.85 13.8106
H 17.8206 4.54 13.8506
H 17.3706 3.1 13.2206
O 2.55 13.4806 2.9
H 1.59 13.4906 2.63
H 2.67 14.0106 3.74
O 1.05 10.1306 17.2606
H 0.28 9.800599999999999 17.8006
H 1.9 9.8306 17.6806
O 6.720000000000001 2.03 14.8906
H 7.62 1.87 14.4906
H 6.800000000000001 2.08 15.8806
O 0.75 3.45 0.33
H 18.4506 3.17 0.04
H 1.06 4.22 18.3906
O 14.4006 8.56 13.9806
H 13.8306 9.08 13.3506
H 15.3606 8.68 13.7406
O 0.72 1.66 3.18
H 0.55 2.49 2.64
H 1.62 1.29 2.96
O 11.8306 13.3506 1.19
H 10.8406 13.2406 1.21
H 12.1706 13.5006 2.12
O 6.13 8.42 14.3106
H 6.69 9.23 14.1406
H 6.720000000000001 7.62 14.3406
O 14.9306 17.6706 9.590599999999998
H 15.2606 18.3106 8.900600000000001
H 15.5906 17.6106 10.3406
O 7.16 5.649999999999999 17.0806
H 7.35 6.3 17.8206
H 7.76 4.85 17.1706
O 14.5006 12.2006 16.3306
H 14.4106 12.1006 17.3206
H 15.4606 12.1306 16.0706
O 3.9 17.4106 15.6006
H 2.99 17.8206 15.5806
H 3.83 16.4706 15.9206
O 16.7406 8.83 12.5406
H 16.4706 7.94 12.1706
H 16.7506 9.51 11.8106
O 12.2506 3.25 4.49
H 12.9006 2.51 4.38
H 12.4506 3.75 5.33
O 5.94 7.45 6.52
H 6.44 8.299999999999999 6.33
H 5.06 7.47 6.04
O 17.7706 3.42 16.4206
H 17.6006 3.73 15.4806
H 16.9306 3.05 16.8006
O 17.3006 9.340599999999998 15.1706
H 17.6806 10.2506 15.3206
H 17.2206 9.1706 14.1806
O 8.59 13.7406 0.16
H 8.129999999999999 13.8906 1.04
H 9.030000000000001 14.5906 18.4806
O 6.61 17.9006 9.5306
H 6.15 0.16 9.400599999999999
H 7.6 18.0206 9.460599999999999
O 14.0806 18.5106 17.2006
H 13.1206 18.4006 16.9306
H 14.6406 17.8406 16.7206
O 8.59 9.560599999999999 8.609999999999999
H 9.130000000000001 8.8706 9.09
H 8.27 10.2506 9.27
O 10.8306 9.8406 0.8699999999999999
H 10.6006 10.3706 0.05
H 11.6406 9.2806 0.68
O 18.6106 15.6906 8.51
H 17.9006 15.5706 7.81
H 0 14.9006 9.109999999999999
O 2.21 13.1406 18.4406
H 1.56 12.4106 18.2306
H 2.25 13.2806 0.8
O 0.79 12.4006 6.53
H 0.78 11.9306 7.41
H 1.61 12.1206 6.02
O 6.720000000000001 13.9106 16.2406
H 5.94 13.4106 16.6206
H 6.69 14.8606 16.5506
O 18.2406 1.92 12.2706
H 18.2006 1.02 12.7106
H 18.2706 1.81 11.2806
O 4.28 4.24 5.2
H 4.58 3.52 4.58
H 3.89 3.84 6.029999999999999
O 17.0506 14.8706 11.0406
H 16.1206 14.6206 10.7706
H 17.3106 14.3706 11.8606
O 3.17 5.470000000000001 12.8006
H 3.55 4.88 13.5206
H 3.57 5.21 11.9206
O 8.120000000000001 15.8606 6.870000000000001
H 8.44 15.9606 5.93
H 7.33 15.2406 6.89
O 14.2406 2.14 11.1206
H 14.7606 1.49 11.6706
H 13.7506 2.77 11.7306
O 10.0106 0.34 11.5406
H 9.380599999999999 18.2406 11.2306
H 10.9406 18.6006 11.5406
O 7.7 13.3006 3.01
H 7.24 12.4306 3.18
H 8.609999999999999 13.2706 3.42
O 6.18 15.6706 12.8406
H 6.13 16.4906 13.4106
H 7.069999999999999 15.6406 12.3906
O 13.5206 0.52 1.68
H 13.8706 0.11 0.8400000000000001
H 12.6206 0.14 1.88
O 13.0006 4.53 6.909999999999999
H 12.4106 5.33 6.949999999999999
H 13.1506 4.18 7.84
O 15.9306 2.21 8.82
H 15.0906 2.2 9.360000000000001
H 15.9506 3.04 8.26
O 0.39 10.7706 3
H 1.38 10.6606 2.91
H 18.6106 9.910599999999999 3.32
O 8.75 16.4606 3.37
H 7.98 16.1106 2.83
H 8.43 17.1706 3.99
