216
Lattice=" 19.71118 0.0 0.0 0.0 19.71118 0.0 0.0 0.0 19.71118 " Properties=species:S:1:pos:R:3 pbc="T T T"
Te 3.23743 3.15117 3.31287
Te 3.22897 3.174 9.823320000000001
Te 3.27809 3.37401 16.4497
Te 3.27206 9.82278 3.26391
Te 3.3711 9.96828 9.873609999999999
Te 3.25981 9.82239 16.5163
Te 3.28976 16.4618 3.36166
Te 3.45493 16.4044 9.81668
Te 3.32632 16.4081 16.4351
Te 9.933160000000001 3.24676 3.1367
Te 9.87598 3.41215 9.83136
Te 9.912330000000001 3.22743 16.3917
Te 9.811870000000001 9.953010000000001 3.33565
Te 9.92751 9.87072 9.90146
Te 9.8767 9.92351 16.4406
Te 9.79989 16.4112 3.38207
Te 9.85848 16.451 9.95345
Te 9.666729999999999 16.5523 16.5195
Te 16.3833 3.09075 3.25736
Te 16.3578 3.29096 9.80992
Te 16.3257 3.23628 16.4292
Te 16.3165 9.74072 3.25235
Te 16.4809 9.85379 9.8719
Te 16.3985 9.87426 16.4109
Te 16.4321 16.216 3.28942
Te 16.4008 16.432 9.865180000000001
Te 16.459 16.3661 16.3714
Te 3.27258 19.6907 19.5985
Te 3.31745 0.10564 6.58787
Te 3.33582 0.01837 13.0771
Te 3.27545 6.48274 19.546
Te 3.24941 6.68124 6.56171
Te 3.29808 6.59404 13.2363
Te 3.3411 13.0951 0.08578
Te 3.26525 13.2091 6.59497
Te 3.28257 13.2375 13.2362
Te 9.88949 0.03681 0.05959
Te 9.91328 0.06047 6.68297
Te 9.978389999999999 0.001 13.1187
Te 9.89124 6.58619 19.6726
Te 9.826840000000001 6.62539 6.57193
Te 9.82633 6.51996 13.1257
Te 9.88977 13.1758 19.6653
Te 9.76872 13.1569 6.57168
Te 9.884080000000001 12.981 13.0873
Te 16.3859 19.6155 19.6677
Te 16.4196 19.7093 6.57633
Te 16.3622 0.04392 13.2091
Te 16.3394 6.59237 19.6544
Te 16.4315 6.63634 6.55143
Te 16.4611 6.59994 13.092
Te 16.4917 13.0591 19.644
Te 16.4019 13.1314 6.57796
Te 16.4459 13.2297 13.0952
Te 19.6607 3.27644 19.6576
Te 19.6631 3.2217 6.50473
Te 19.6733 3.22152 13.1593
Te 19.6898 9.77351 0.01245
Te 0.07202 9.92205 6.64353
Te 19.7019 9.911390000000001 13.1853
Te 0.18377 16.338 19.7073
Te 19.6967 16.455 6.48049
Te 0.03682 16.4741 13.1259
Te 6.53497 3.29965 0.11202
Te 6.51562 3.41435 6.56823
Te 6.48717 3.22839 13.1773
Te 6.67253 9.88489 19.6559
Te 6.50824 9.938499999999999 6.55898
Te 6.60724 9.85529 13.0658
Te 6.68601 16.478 0.07274
Te 6.68498 16.5302 6.70442
Te 6.73234 16.3717 13.1907
Te 13.178 3.18281 19.6564
Te 13.1341 3.17478 6.57707
Te 12.9917 3.25882 13.1711
Te 13.137 9.82577 19.5174
Te 13.1862 9.77399 6.40019
Te 13.2243 9.681559999999999 12.965
Te 13.1627 16.5095 19.6079
Te 13.1526 16.2983 6.51326
Te 13.1911 16.3037 13.0205
Te 0.01026 19.7042 3.33503
Te 19.6627 0.04775 9.806979999999999
Te 0.02878 0.06094 16.5233
Te 19.6871 6.67103 3.277
Te 0.05204 6.61966 9.9674
Te 19.7022 6.66901 16.5231
Te 19.7109 13.0626 3.21131
Te 19.6309 13.3058 9.74948
Te 19.6615 13.1983 16.2872
Te 6.64783 0.12131 3.37753
Te 6.56615 0.00584 10.0249
Te 6.56149 19.6303 16.4872
Te 6.5716 6.73932 3.20925
Te 6.55066 6.48418 9.895720000000001
Te 6.50148 6.48367 16.3835
Te 6.54341 13.2844 3.3416
Te 6.54165 13.1432 9.90929
Te 6.53167 13.0719 16.4615
Te 13.17 19.6037 3.40664
Te 13.221 19.6619 9.86191
Te 13.0971 19.6762 16.5108
Te 13.0924 6.41424 3.34497
Te 13.1284 6.50112 9.87688
Te 13.0705 6.54074 16.3762
Te 13.091 13.1494 3.21557
Te 13.0113 13.0422 9.82249
Te 13.1101 13.0917 16.3189
Pb 19.6116 19.686 19.6404
Pb 0.1442 19.6916 6.52253
Pb 0.03706 19.6322 13.1439
Pb 19.6368 6.5572 0.02149
Pb 19.6162 6.5802 6.51117
Pb 0.01024 6.57413 13.1332
Pb 0.04731 13.1569 19.6922
Pb 0.11642 13.2188 6.54605
Pb 19.7025 13.2125 13.0611
Pb 6.57977 0.06511 0.04849
Pb 6.69882 0.10617 6.66575
Pb 6.66119 0.00851 13.2332
Pb 6.55096 6.58105 19.7035
Pb 6.51592 6.84786 6.57894
Pb 6.38811 6.6036 13.1572
Pb 6.59839 13.2112 0.14104
Pb 6.52118 13.4104 6.70902
Pb 6.56434 13.1298 13.1878
Pb 13.1512 0.00703 0.02737
Pb 13.181 19.5632 6.69586
Pb 13.2523 19.6487 13.0922
Pb 13.13 6.46183 0.00534
Pb 13.1336 6.41451 6.60837
Pb 13.002 6.55754 13.1563
Pb 13.1717 13.0694 19.6253
Pb 13.2171 13.0418 6.54794
Pb 13.1889 13.0821 13.0265
Pb 3.28243 3.23389 0.05867
Pb 3.33158 3.39881 6.51161
Pb 3.31186 3.44563 13.0689
Pb 3.37277 9.864509999999999 0.02237
Pb 3.27835 10.016 6.65756
Pb 3.27455 9.9331 13.1765
Pb 3.46051 16.4359 0.13185
Pb 3.46994 16.4621 6.59994
Pb 3.3786 16.4476 13.2389
Pb 9.72405 3.32519 19.631
Pb 10.0159 3.27561 6.33751
Pb 9.815200000000001 3.30128 13.0962
Pb 9.9983 9.944800000000001 19.548
Pb 9.8293 9.93629 6.47536
Pb 9.92723 9.800700000000001 13.1473
Pb 9.99653 16.4355 0.2787
Pb 9.899369999999999 16.4109 6.74632
Pb 9.950989999999999 16.5781 13.3221
Pb 16.3271 3.21476 0.09165
Pb 16.4172 3.20669 6.57393
Pb 16.3278 3.41193 13.1074
Pb 16.4034 9.7464 19.5982
Pb 16.351 9.86411 6.41946
Pb 16.4924 9.938280000000001 13.0794
Pb 16.5614 16.2988 19.6241
Pb 16.4404 16.3941 6.58461
Pb 16.4736 16.4082 13.1935
Pb 3.36454 0.03138 3.22939
Pb 3.39972 19.6835 9.91872
Pb 3.31368 0.10732 16.3329
Pb 3.21695 6.65912 3.30143
Pb 3.29979 6.51176 9.858779999999999
Pb 3.23617 6.54361 16.3414
Pb 3.18515 13.2254 3.33601
Pb 3.11199 13.2187 9.912280000000001
Pb 3.23166 13.1995 16.5243
Pb 9.947749999999999 19.6961 3.37018
Pb 9.976739999999999 0.16743 9.884130000000001
Pb 9.89227 0.10186 16.4483
Pb 9.821260000000001 6.48321 3.27417
Pb 9.71917 6.60479 9.865769999999999
Pb 9.824780000000001 6.64625 16.4582
Pb 9.83254 13.2066 3.33947
Pb 9.75976 13.0144 9.934139999999999
Pb 9.73826 13.3164 16.2234
Pb 16.4484 19.5262 3.23612
Pb 16.4363 19.6264 9.86496
Pb 16.3518 19.658 16.3442
Pb 16.4428 6.4366 3.30084
Pb 16.3568 6.55758 9.76036
Pb 16.2813 6.4537 16.4061
Pb 16.445 13.0072 3.28083
Pb 16.3248 13.159 9.81958
Pb 16.3653 13.0354 16.4322
Pb 19.6251 3.26091 3.26882
Pb 19.6369 3.30851 9.871180000000001
Pb 19.6835 3.26534 16.4403
Pb 0.01616 9.82091 3.33239
Pb 0.05926 9.902060000000001 9.87355
Pb 0.00079 9.903589999999999 16.4438
Pb 19.6106 16.4431 3.23456
Pb 0.02676 16.5527 9.83263
Pb 19.6971 16.4875 16.3744
Pb 6.40119 3.31241 3.38103
Pb 6.5172 3.25335 9.91113
Pb 6.44798 3.0721 16.3983
Pb 6.61471 10.0764 3.32246
Pb 6.57222 9.785729999999999 9.779640000000001
Pb 6.61801 9.806950000000001 16.4287
Pb 6.51709 16.6031 3.36152
Pb 6.6487 16.4157 9.92671
Pb 6.54941 16.3505 16.3777
Pb 13.1218 3.17139 3.3243
Pb 13.1578 3.24664 9.979469999999999
Pb 13.0652 3.18557 16.3837
Pb 13.1302 9.78876 3.16295
Pb 13.2189 9.77563 9.84576
Pb 13.2411 9.7224 16.2873
Pb 13.1154 16.4031 3.25451
Pb 13.195 16.3952 9.844329999999999
Pb 13.0733 16.3829 16.4223
