2048
Lattice="23.4709760000 0 0 0 40.6529229352 0 0 0 38.3279433101" Properties=species:S:1:pos:R:3 pbc="T T T" case=zhou_ti_hcp
Ti 0.0000000000 0.0000000000 0.0000000000
Ti 1.4669360000 2.5408076835 0.0000000000
Ti 1.4669360000 0.8469358945 2.3954964569
Ti 0.0000000000 3.3877435779 2.3954964569
Ti 0.0000000000 0.0000000000 4.7909929138
Ti 1.4669360000 2.5408076835 4.7909929138
Ti 1.4669360000 0.8469358945 7.1864893706
Ti 0.0000000000 3.3877435779 7.1864893706
Ti 0.0000000000 0.0000000000 9.5819858275
Ti 1.4669360000 2.5408076835 9.5819858275
Ti 1.4669360000 0.8469358945 11.9774822844
Ti 0.0000000000 3.3877435779 11.9774822844
Ti 0.0000000000 0.0000000000 14.3729787413
Ti 1.4669360000 2.5408076835 14.3729787413
Ti 1.4669360000 0.8469358945 16.7684751982
Ti 0.0000000000 3.3877435779 16.7684751982
Ti 0.0000000000 0.0000000000 19.1639716550
Ti 1.4669360000 2.5408076835 19.1639716550
Ti 1.4669360000 0.8469358945 21.5594681119
Ti 0.0000000000 3.3877435779 21.5594681119
Ti 0.0000000000 0.0000000000 23.9549645688
Ti 1.4669360000 2.5408076835 23.9549645688
Ti 1.4669360000 0.8469358945 26.3504610257
Ti 0.0000000000 3.3877435779 26.3504610257
Ti 0.0000000000 0.0000000000 28.7459574826
Ti 1.4669360000 2.5408076835 28.7459574826
Ti 1.4669360000 0.8469358945 31.1414539394
Ti 0.0000000000 3.3877435779 31.1414539394
Ti 0.0000000000 0.0000000000 33.5369503963
Ti 1.4669360000 2.5408076835 33.5369503963
Ti 1.4669360000 0.8469358945 35.9324468532
Ti 0.0000000000 3.3877435779 35.9324468532
Ti 0.0000000000 5.0816153669 0.0000000000
Ti 1.4669360000 7.6224230504 0.0000000000
Ti 1.4669360000 5.9285512614 2.3954964569
Ti 0.0000000000 8.4693589448 2.3954964569
Ti 0.0000000000 5.0816153669 4.7909929138
Ti 1.4669360000 7.6224230504 4.7909929138
Ti 1.4669360000 5.9285512614 7.1864893706
Ti 0.0000000000 8.4693589448 7.1864893706
Ti 0.0000000000 5.0816153669 9.5819858275
Ti 1.4669360000 7.6224230504 9.5819858275
Ti 1.4669360000 5.9285512614 11.9774822844
Ti 0.0000000000 8.4693589448 11.9774822844
Ti 0.0000000000 5.0816153669 14.3729787413
Ti 1.4669360000 7.6224230504 14.3729787413
Ti 1.4669360000 5.9285512614 16.7684751982
Ti 0.0000000000 8.4693589448 16.7684751982
Ti 0.0000000000 5.0816153669 19.1639716550
Ti 1.4669360000 7.6224230504 19.1639716550
Ti 1.4669360000 5.9285512614 21.5594681119
Ti 0.0000000000 8.4693589448 21.5594681119
Ti 0.0000000000 5.0816153669 23.9549645688
Ti 1.4669360000 7.6224230504 23.9549645688
Ti 1.4669360000 5.9285512614 26.3504610257
Ti 0.0000000000 8.4693589448 26.3504610257
Ti 0.0000000000 5.0816153669 28.7459574826
Ti 1.4669360000 7.6224230504 28.7459574826
Ti 1.4669360000 5.9285512614 31.1414539394
Ti 0.0000000000 8.4693589448 31.1414539394
Ti 0.0000000000 5.0816153669 33.5369503963
Ti 1.4669360000 7.6224230504 33.5369503963
Ti 1.4669360000 5.9285512614 35.9324468532
Ti 0.0000000000 8.4693589448 35.9324468532
Ti 0.0000000000 10.1632307338 0.0000000000
Ti 1.4669360000 12.7040384173 0.0000000000
Ti 1.4669360000 11.0101666283 2.3954964569
Ti 0.0000000000 13.5509743117 2.3954964569
Ti 0.0000000000 10.1632307338 4.7909929138
Ti 1.4669360000 12.7040384173 4.7909929138
Ti 1.4669360000 11.0101666283 7.1864893706
Ti 0.0000000000 13.5509743117 7.1864893706
Ti 0.0000000000 10.1632307338 9.5819858275
Ti 1.4669360000 12.7040384173 9.5819858275
Ti 1.4669360000 11.0101666283 11.9774822844
Ti 0.0000000000 13.5509743117 11.9774822844
Ti 0.0000000000 10.1632307338 14.3729787413
Ti 1.4669360000 12.7040384173 14.3729787413
Ti 1.4669360000 11.0101666283 16.7684751982
Ti 0.0000000000 13.5509743117 16.7684751982
Ti 0.0000000000 10.1632307338 19.1639716550
Ti 1.4669360000 12.7040384173 19.1639716550
Ti 1.4669360000 11.0101666283 21.5594681119
Ti 0.0000000000 13.5509743117 21.5594681119
Ti 0.0000000000 10.1632307338 23.9549645688
Ti 1.4669360000 12.7040384173 23.9549645688
Ti 1.4669360000 11.0101666283 26.3504610257
Ti 0.0000000000 13.5509743117 26.3504610257
Ti 0.0000000000 10.1632307338 28.7459574826
Ti 1.4669360000 12.7040384173 28.7459574826
Ti 1.4669360000 11.0101666283 31.1414539394
Ti 0.0000000000 13.5509743117 31.1414539394
Ti 0.0000000000 10.1632307338 33.5369503963
Ti 1.4669360000 12.7040384173 33.5369503963
Ti 1.4669360000 11.0101666283 35.9324468532
Ti 0.0000000000 13.5509743117 35.9324468532
Ti 0.0000000000 15.2448461007 0.0000000000
Ti 1.4669360000 17.7856537842 0.0000000000
Ti 1.4669360000 16.0917819952 2.3954964569
Ti 0.0000000000 18.6325896786 2.3954964569
Ti 0.0000000000 15.2448461007 4.7909929138
Ti 1.4669360000 17.7856537842 4.7909929138
Ti 1.4669360000 16.0917819952 7.1864893706
Ti 0.0000000000 18.6325896786 7.1864893706
Ti 0.0000000000 15.2448461007 9.5819858275
Ti 1.4669360000 17.7856537842 9.5819858275
Ti 1.4669360000 16.0917819952 11.9774822844
Ti 0.0000000000 18.6325896786 11.9774822844
Ti 0.0000000000 15.2448461007 14.3729787413
Ti 1.4669360000 17.7856537842 14.3729787413
Ti 1.4669360000 16.0917819952 16.7684751982
Ti 0.0000000000 18.6325896786 16.7684751982
Ti 0.0000000000 15.2448461007 19.1639716550
Ti 1.4669360000 17.7856537842 19.1639716550
Ti 1.4669360000 16.0917819952 21.5594681119
Ti 0.0000000000 18.6325896786 21.5594681119
Ti 0.0000000000 15.2448461007 23.9549645688
Ti 1.4669360000 17.7856537842 23.9549645688
Ti 1.4669360000 16.0917819952 26.3504610257
Ti 0.0000000000 18.6325896786 26.3504610257
Ti 0.0000000000 15.2448461007 28.7459574826
Ti 1.4669360000 17.7856537842 28.7459574826
Ti 1.4669360000 16.0917819952 31.1414539394
Ti 0.0000000000 18.6325896786 31.1414539394
Ti 0.0000000000 15.2448461007 33.5369503963
Ti 1.4669360000 17.7856537842 33.5369503963
Ti 1.4669360000 16.0917819952 35.9324468532
Ti 0.0000000000 18.6325896786 35.9324468532
Ti 0.0000000000 20.3264614676 0.0000000000
Ti 1.4669360000 22.8672691511 0.0000000000
Ti 1.4669360000 21.1733973621 2.3954964569
Ti 0.0000000000 23.7142050456 2.3954964569
Ti 0.0000000000 20.3264614676 4.7909929138
Ti 1.4669360000 22.8672691511 4.7909929138
Ti 1.4669360000 21.1733973621 7.1864893706
Ti 0.0000000000 23.7142050456 7.1864893706
Ti 0.0000000000 20.3264614676 9.5819858275
Ti 1.4669360000 22.8672691511 9.5819858275
Ti 1.4669360000 21.1733973621 11.9774822844
Ti 0.0000000000 23.7142050456 11.9774822844
Ti 0.0000000000 20.3264614676 14.3729787413
Ti 1.4669360000 22.8672691511 14.3729787413
Ti 1.4669360000 21.1733973621 16.7684751982
Ti 0.0000000000 23.7142050456 16.7684751982
Ti 0.0000000000 20.3264614676 19.1639716550
Ti 1.4669360000 22.8672691511 19.1639716550
Ti 1.4669360000 21.1733973621 21.5594681119
Ti 0.0000000000 23.7142050456 21.5594681119
Ti 0.0000000000 20.3264614676 23.9549645688
Ti 1.4669360000 22.8672691511 23.9549645688
Ti 1.4669360000 21.1733973621 26.3504610257
Ti 0.0000000000 23.7142050456 26.3504610257
Ti 0.0000000000 20.3264614676 28.7459574826
Ti 1.4669360000 22.8672691511 28.7459574826
Ti 1.4669360000 21.1733973621 31.1414539394
Ti 0.0000000000 23.7142050456 31.1414539394
Ti 0.0000000000 20.3264614676 33.5369503963
Ti 1.4669360000 22.8672691511 33.5369503963
Ti 1.4669360000 21.1733973621 35.9324468532
Ti 0.0000000000 23.7142050456 35.9324468532
Ti 0.0000000000 25.4080768345 0.0000000000
Ti 1.4669360000 27.9488845180 0.0000000000
Ti 1.4669360000 26.2550127290 2.3954964569
Ti 0.0000000000 28.7958204125 2.3954964569
Ti 0.0000000000 25.4080768345 4.7909929138
Ti 1.4669360000 27.9488845180 4.7909929138
Ti 1.4669360000 26.2550127290 7.1864893706
Ti 0.0000000000 28.7958204125 7.1864893706
Ti 0.0000000000 25.4080768345 9.5819858275
Ti 1.4669360000 27.9488845180 9.5819858275
Ti 1.4669360000 26.2550127290 11.9774822844
Ti 0.0000000000 28.7958204125 11.9774822844
Ti 0.0000000000 25.4080768345 14.3729787413
Ti 1.4669360000 27.9488845180 14.3729787413
Ti 1.4669360000 26.2550127290 16.7684751982
Ti 0.0000000000 28.7958204125 16.7684751982
Ti 0.0000000000 25.4080768345 19.1639716550
Ti 1.4669360000 27.9488845180 19.1639716550
Ti 1.4669360000 26.2550127290 21.5594681119
Ti 0.0000000000 28.7958204125 21.5594681119
Ti 0.0000000000 25.4080768345 23.9549645688
Ti 1.4669360000 27.9488845180 23.9549645688
Ti 1.4669360000 26.2550127290 26.3504610257
Ti 0.0000000000 28.7958204125 26.3504610257
Ti 0.0000000000 25.4080768345 28.7459574826
Ti 1.4669360000 27.9488845180 28.7459574826
Ti 1.4669360000 26.2550127290 31.1414539394
Ti 0.0000000000 28.7958204125 31.1414539394
Ti 0.0000000000 25.4080768345 33.5369503963
Ti 1.4669360000 27.9488845180 33.5369503963
Ti 1.4669360000 26.2550127290 35.9324468532
Ti 0.0000000000 28.7958204125 35.9324468532
Ti 0.0000000000 30.4896922014 0.0000000000
Ti 1.4669360000 33.0304998849 0.0000000000
Ti 1.4669360000 31.3366280959 2.3954964569
Ti 0.0000000000 33.8774357794 2.3954964569
Ti 0.0000000000 30.4896922014 4.7909929138
Ti 1.4669360000 33.0304998849 4.7909929138
Ti 1.4669360000 31.3366280959 7.1864893706
Ti 0.0000000000 33.8774357794 7.1864893706
Ti 0.0000000000 30.4896922014 9.5819858275
Ti 1.4669360000 33.0304998849 9.5819858275
Ti 1.4669360000 31.3366280959 11.9774822844
Ti 0.0000000000 33.8774357794 11.9774822844
Ti 0.0000000000 30.4896922014 14.3729787413
Ti 1.4669360000 33.0304998849 14.3729787413
Ti 1.4669360000 31.3366280959 16.7684751982
Ti 0.0000000000 33.8774357794 16.7684751982
Ti 0.0000000000 30.4896922014 19.1639716550
Ti 1.4669360000 33.0304998849 19.1639716550
Ti 1.4669360000 31.3366280959 21.5594681119
Ti 0.0000000000 33.8774357794 21.5594681119
Ti 0.0000000000 30.4896922014 23.9549645688
Ti 1.4669360000 33.0304998849 23.9549645688
Ti 1.4669360000 31.3366280959 26.3504610257
Ti 0.0000000000 33.8774357794 26.3504610257
Ti 0.0000000000 30.4896922014 28.7459574826
Ti 1.4669360000 33.0304998849 28.7459574826
Ti 1.4669360000 31.3366280959 31.1414539394
Ti 0.0000000000 33.8774357794 31.1414539394
Ti 0.0000000000 30.4896922014 33.5369503963
Ti 1.4669360000 33.0304998849 33.5369503963
Ti 1.4669360000 31.3366280959 35.9324468532
Ti 0.0000000000 33.8774357794 35.9324468532
Ti 0.0000000000 35.5713075683 0.0000000000
Ti 1.4669360000 38.1121152518 0.0000000000
Ti 1.4669360000 36.4182434628 2.3954964569
Ti 0.0000000000 38.9590511463 2.3954964569
Ti 0.0000000000 35.5713075683 4.7909929138
Ti 1.4669360000 38.1121152518 4.7909929138
Ti 1.4669360000 36.4182434628 7.1864893706
Ti 0.0000000000 38.9590511463 7.1864893706
Ti 0.0000000000 35.5713075683 9.5819858275
Ti 1.4669360000 38.1121152518 9.5819858275
Ti 1.4669360000 36.4182434628 11.9774822844
Ti 0.0000000000 38.9590511463 11.9774822844
Ti 0.0000000000 35.5713075683 14.3729787413
Ti 1.4669360000 38.1121152518 14.3729787413
Ti 1.4669360000 36.4182434628 16.7684751982
Ti 0.0000000000 38.9590511463 16.7684751982
Ti 0.0000000000 35.5713075683 19.1639716550
Ti 1.4669360000 38.1121152518 19.1639716550
Ti 1.4669360000 36.4182434628 21.5594681119
Ti 0.0000000000 38.9590511463 21.5594681119
Ti 0.0000000000 35.5713075683 23.9549645688
Ti 1.4669360000 38.1121152518 23.9549645688
Ti 1.4669360000 36.4182434628 26.3504610257
Ti 0.0000000000 38.9590511463 26.3504610257
Ti 0.0000000000 35.5713075683 28.7459574826
Ti 1.4669360000 38.1121152518 28.7459574826
Ti 1.4669360000 36.4182434628 31.1414539394
Ti 0.0000000000 38.9590511463 31.1414539394
Ti 0.0000000000 35.5713075683 33.5369503963
Ti 1.4669360000 38.1121152518 33.5369503963
Ti 1.4669360000 36.4182434628 35.9324468532
Ti 0.0000000000 38.9590511463 35.9324468532
Ti 2.9338720000 0.0000000000 0.0000000000
Ti 4.4008080000 2.5408076835 0.0000000000
Ti 4.4008080000 0.8469358945 2.3954964569
Ti 2.9338720000 3.3877435779 2.3954964569
Ti 2.9338720000 0.0000000000 4.7909929138
Ti 4.4008080000 2.5408076835 4.7909929138
Ti 4.4008080000 0.8469358945 7.1864893706
Ti 2.9338720000 3.3877435779 7.1864893706
Ti 2.9338720000 0.0000000000 9.5819858275
Ti 4.4008080000 2.5408076835 9.5819858275
Ti 4.4008080000 0.8469358945 11.9774822844
Ti 2.9338720000 3.3877435779 11.9774822844
Ti 2.9338720000 0.0000000000 14.3729787413
Ti 4.4008080000 2.5408076835 14.3729787413
Ti 4.4008080000 0.8469358945 16.7684751982
Ti 2.9338720000 3.3877435779 16.7684751982
Ti 2.9338720000 0.0000000000 19.1639716550
Ti 4.4008080000 2.5408076835 19.1639716550
Ti 4.4008080000 0.8469358945 21.5594681119
Ti 2.9338720000 3.3877435779 21.5594681119
Ti 2.9338720000 0.0000000000 23.9549645688
Ti 4.4008080000 2.5408076835 23.9549645688
Ti 4.4008080000 0.8469358945 26.3504610257
Ti 2.9338720000 3.3877435779 26.3504610257
Ti 2.9338720000 0.0000000000 28.7459574826
Ti 4.4008080000 2.5408076835 28.7459574826
Ti 4.4008080000 0.8469358945 31.1414539394
Ti 2.9338720000 3.3877435779 31.1414539394
Ti 2.9338720000 0.0000000000 33.5369503963
Ti 4.4008080000 2.5408076835 33.5369503963
Ti 4.4008080000 0.8469358945 35.9324468532
Ti 2.9338720000 3.3877435779 35.9324468532
Ti 2.9338720000 5.0816153669 0.0000000000
Ti 4.4008080000 7.6224230504 0.0000000000
Ti 4.4008080000 5.9285512614 2.3954964569
Ti 2.9338720000 8.4693589448 2.3954964569
Ti 2.9338720000 5.0816153669 4.7909929138
Ti 4.4008080000 7.6224230504 4.7909929138
Ti 4.4008080000 5.9285512614 7.1864893706
Ti 2.9338720000 8.4693589448 7.1864893706
Ti 2.9338720000 5.0816153669 9.5819858275
Ti 4.4008080000 7.6224230504 9.5819858275
Ti 4.4008080000 5.9285512614 11.9774822844
Ti 2.9338720000 8.4693589448 11.9774822844
Ti 2.9338720000 5.0816153669 14.3729787413
Ti 4.4008080000 7.6224230504 14.3729787413
Ti 4.4008080000 5.9285512614 16.7684751982
Ti 2.9338720000 8.4693589448 16.7684751982
Ti 2.9338720000 5.0816153669 19.1639716550
Ti 4.4008080000 7.6224230504 19.1639716550
Ti 4.4008080000 5.9285512614 21.5594681119
Ti 2.9338720000 8.4693589448 21.5594681119
Ti 2.9338720000 5.0816153669 23.9549645688
Ti 4.4008080000 7.6224230504 23.9549645688
Ti 4.4008080000 5.9285512614 26.3504610257
Ti 2.9338720000 8.4693589448 26.3504610257
Ti 2.9338720000 5.0816153669 28.7459574826
Ti 4.4008080000 7.6224230504 28.7459574826
Ti 4.4008080000 5.9285512614 31.1414539394
Ti 2.9338720000 8.4693589448 31.1414539394
Ti 2.9338720000 5.0816153669 33.5369503963
Ti 4.4008080000 7.6224230504 33.5369503963
Ti 4.4008080000 5.9285512614 35.9324468532
Ti 2.9338720000 8.4693589448 35.9324468532
Ti 2.9338720000 10.1632307338 0.0000000000
Ti 4.4008080000 12.7040384173 0.0000000000
Ti 4.4008080000 11.0101666283 2.3954964569
Ti 2.9338720000 13.5509743117 2.3954964569
Ti 2.9338720000 10.1632307338 4.7909929138
Ti 4.4008080000 12.7040384173 4.7909929138
Ti 4.4008080000 11.0101666283 7.1864893706
Ti 2.9338720000 13.5509743117 7.1864893706
Ti 2.9338720000 10.1632307338 9.5819858275
Ti 4.4008080000 12.7040384173 9.5819858275
Ti 4.4008080000 11.0101666283 11.9774822844
Ti 2.9338720000 13.5509743117 11.9774822844
Ti 2.9338720000 10.1632307338 14.3729787413
Ti 4.4008080000 12.7040384173 14.3729787413
Ti 4.4008080000 11.0101666283 16.7684751982
Ti 2.9338720000 13.5509743117 16.7684751982
Ti 2.9338720000 10.1632307338 19.1639716550
Ti 4.4008080000 12.7040384173 19.1639716550
Ti 4.4008080000 11.0101666283 21.5594681119
Ti 2.9338720000 13.5509743117 21.5594681119
Ti 2.9338720000 10.1632307338 23.9549645688
Ti 4.4008080000 12.7040384173 23.9549645688
Ti 4.4008080000 11.0101666283 26.3504610257
Ti 2.9338720000 13.5509743117 26.3504610257
Ti 2.9338720000 10.1632307338 28.7459574826
Ti 4.4008080000 12.7040384173 28.7459574826
Ti 4.4008080000 11.0101666283 31.1414539394
Ti 2.9338720000 13.5509743117 31.1414539394
Ti 2.9338720000 10.1632307338 33.5369503963
Ti 4.4008080000 12.7040384173 33.5369503963
Ti 4.4008080000 11.0101666283 35.9324468532
Ti 2.9338720000 13.5509743117 35.9324468532
Ti 2.9338720000 15.2448461007 0.0000000000
Ti 4.4008080000 17.7856537842 0.0000000000
Ti 4.4008080000 16.0917819952 2.3954964569
Ti 2.9338720000 18.6325896786 2.3954964569
Ti 2.9338720000 15.2448461007 4.7909929138
Ti 4.4008080000 17.7856537842 4.7909929138
Ti 4.4008080000 16.0917819952 7.1864893706
Ti 2.9338720000 18.6325896786 7.1864893706
Ti 2.9338720000 15.2448461007 9.5819858275
Ti 4.4008080000 17.7856537842 9.5819858275
Ti 4.4008080000 16.0917819952 11.9774822844
Ti 2.9338720000 18.6325896786 11.9774822844
Ti 2.9338720000 15.2448461007 14.3729787413
Ti 4.4008080000 17.7856537842 14.3729787413
Ti 4.4008080000 16.0917819952 16.7684751982
Ti 2.9338720000 18.6325896786 16.7684751982
Ti 2.9338720000 15.2448461007 19.1639716550
Ti 4.4008080000 17.7856537842 19.1639716550
Ti 4.4008080000 16.0917819952 21.5594681119
Ti 2.9338720000 18.6325896786 21.5594681119
Ti 2.9338720000 15.2448461007 23.9549645688
Ti 4.4008080000 17.7856537842 23.9549645688
Ti 4.4008080000 16.0917819952 26.3504610257
Ti 2.9338720000 18.6325896786 26.3504610257
Ti 2.9338720000 15.2448461007 28.7459574826
Ti 4.4008080000 17.7856537842 28.7459574826
Ti 4.4008080000 16.0917819952 31.1414539394
Ti 2.9338720000 18.6325896786 31.1414539394
Ti 2.9338720000 15.2448461007 33.5369503963
Ti 4.4008080000 17.7856537842 33.5369503963
Ti 4.4008080000 16.0917819952 35.9324468532
Ti 2.9338720000 18.6325896786 35.9324468532
Ti 2.9338720000 20.3264614676 0.0000000000
Ti 4.4008080000 22.8672691511 0.0000000000
Ti 4.4008080000 21.1733973621 2.3954964569
Ti 2.9338720000 23.7142050456 2.3954964569
Ti 2.9338720000 20.3264614676 4.7909929138
Ti 4.4008080000 22.8672691511 4.7909929138
Ti 4.4008080000 21.1733973621 7.1864893706
Ti 2.9338720000 23.7142050456 7.1864893706
Ti 2.9338720000 20.3264614676 9.5819858275
Ti 4.4008080000 22.8672691511 9.5819858275
Ti 4.4008080000 21.1733973621 11.9774822844
Ti 2.9338720000 23.7142050456 11.9774822844
Ti 2.9338720000 20.3264614676 14.3729787413
Ti 4.4008080000 22.8672691511 14.3729787413
Ti 4.4008080000 21.1733973621 16.7684751982
Ti 2.9338720000 23.7142050456 16.7684751982
Ti 2.9338720000 20.3264614676 19.1639716550
Ti 4.4008080000 22.8672691511 19.1639716550
Ti 4.4008080000 21.1733973621 21.5594681119
Ti 2.9338720000 23.7142050456 21.5594681119
Ti 2.9338720000 20.3264614676 23.9549645688
Ti 4.4008080000 22.8672691511 23.9549645688
Ti 4.4008080000 21.1733973621 26.3504610257
Ti 2.9338720000 23.7142050456 26.3504610257
Ti 2.9338720000 20.3264614676 28.7459574826
Ti 4.4008080000 22.8672691511 28.7459574826
Ti 4.4008080000 21.1733973621 31.1414539394
Ti 2.9338720000 23.7142050456 31.1414539394
Ti 2.9338720000 20.3264614676 33.5369503963
Ti 4.4008080000 22.8672691511 33.5369503963
Ti 4.4008080000 21.1733973621 35.9324468532
Ti 2.9338720000 23.7142050456 35.9324468532
Ti 2.9338720000 25.4080768345 0.0000000000
Ti 4.4008080000 27.9488845180 0.0000000000
Ti 4.4008080000 26.2550127290 2.3954964569
Ti 2.9338720000 28.7958204125 2.3954964569
Ti 2.9338720000 25.4080768345 4.7909929138
Ti 4.4008080000 27.9488845180 4.7909929138
Ti 4.4008080000 26.2550127290 7.1864893706
Ti 2.9338720000 28.7958204125 7.1864893706
Ti 2.9338720000 25.4080768345 9.5819858275
Ti 4.4008080000 27.9488845180 9.5819858275
Ti 4.4008080000 26.2550127290 11.9774822844
Ti 2.9338720000 28.7958204125 11.9774822844
Ti 2.9338720000 25.4080768345 14.3729787413
Ti 4.4008080000 27.9488845180 14.3729787413
Ti 4.4008080000 26.2550127290 16.7684751982
Ti 2.9338720000 28.7958204125 16.7684751982
Ti 2.9338720000 25.4080768345 19.1639716550
Ti 4.4008080000 27.9488845180 19.1639716550
Ti 4.4008080000 26.2550127290 21.5594681119
Ti 2.9338720000 28.7958204125 21.5594681119
Ti 2.9338720000 25.4080768345 23.9549645688
Ti 4.4008080000 27.9488845180 23.9549645688
Ti 4.4008080000 26.2550127290 26.3504610257
Ti 2.9338720000 28.7958204125 26.3504610257
Ti 2.9338720000 25.4080768345 28.7459574826
Ti 4.4008080000 27.9488845180 28.7459574826
Ti 4.4008080000 26.2550127290 31.1414539394
Ti 2.9338720000 28.7958204125 31.1414539394
Ti 2.9338720000 25.4080768345 33.5369503963
Ti 4.4008080000 27.9488845180 33.5369503963
Ti 4.4008080000 26.2550127290 35.9324468532
Ti 2.9338720000 28.7958204125 35.9324468532
Ti 2.9338720000 30.4896922014 0.0000000000
Ti 4.4008080000 33.0304998849 0.0000000000
Ti 4.4008080000 31.3366280959 2.3954964569
Ti 2.9338720000 33.8774357794 2.3954964569
Ti 2.9338720000 30.4896922014 4.7909929138
Ti 4.4008080000 33.0304998849 4.7909929138
Ti 4.4008080000 31.3366280959 7.1864893706
Ti 2.9338720000 33.8774357794 7.1864893706
Ti 2.9338720000 30.4896922014 9.5819858275
Ti 4.4008080000 33.0304998849 9.5819858275
Ti 4.4008080000 31.3366280959 11.9774822844
Ti 2.9338720000 33.8774357794 11.9774822844
Ti 2.9338720000 30.4896922014 14.3729787413
Ti 4.4008080000 33.0304998849 14.3729787413
Ti 4.4008080000 31.3366280959 16.7684751982
Ti 2.9338720000 33.8774357794 16.7684751982
Ti 2.9338720000 30.4896922014 19.1639716550
Ti 4.4008080000 33.0304998849 19.1639716550
Ti 4.4008080000 31.3366280959 21.5594681119
Ti 2.9338720000 33.8774357794 21.5594681119
Ti 2.9338720000 30.4896922014 23.9549645688
Ti 4.4008080000 33.0304998849 23.9549645688
Ti 4.4008080000 31.3366280959 26.3504610257
Ti 2.9338720000 33.8774357794 26.3504610257
Ti 2.9338720000 30.4896922014 28.7459574826
Ti 4.4008080000 33.0304998849 28.7459574826
Ti 4.4008080000 31.3366280959 31.1414539394
Ti 2.9338720000 33.8774357794 31.1414539394
Ti 2.9338720000 30.4896922014 33.5369503963
Ti 4.4008080000 33.0304998849 33.5369503963
Ti 4.4008080000 31.3366280959 35.9324468532
Ti 2.9338720000 33.8774357794 35.9324468532
Ti 2.9338720000 35.5713075683 0.0000000000
Ti 4.4008080000 38.1121152518 0.0000000000
Ti 4.4008080000 36.4182434628 2.3954964569
Ti 2.9338720000 38.9590511463 2.3954964569
Ti 2.9338720000 35.5713075683 4.7909929138
Ti 4.4008080000 38.1121152518 4.7909929138
Ti 4.4008080000 36.4182434628 7.1864893706
Ti 2.9338720000 38.9590511463 7.1864893706
Ti 2.9338720000 35.5713075683 9.5819858275
Ti 4.4008080000 38.1121152518 9.5819858275
Ti 4.4008080000 36.4182434628 11.9774822844
Ti 2.9338720000 38.9590511463 11.9774822844
Ti 2.9338720000 35.5713075683 14.3729787413
Ti 4.4008080000 38.1121152518 14.3729787413
Ti 4.4008080000 36.4182434628 16.7684751982
Ti 2.9338720000 38.9590511463 16.7684751982
Ti 2.9338720000 35.5713075683 19.1639716550
Ti 4.4008080000 38.1121152518 19.1639716550
Ti 4.4008080000 36.4182434628 21.5594681119
Ti 2.9338720000 38.9590511463 21.5594681119
Ti 2.9338720000 35.5713075683 23.9549645688
Ti 4.4008080000 38.1121152518 23.9549645688
Ti 4.4008080000 36.4182434628 26.3504610257
Ti 2.9338720000 38.9590511463 26.3504610257
Ti 2.9338720000 35.5713075683 28.7459574826
Ti 4.4008080000 38.1121152518 28.7459574826
Ti 4.4008080000 36.4182434628 31.1414539394
Ti 2.9338720000 38.9590511463 31.1414539394
Ti 2.9338720000 35.5713075683 33.5369503963
Ti 4.4008080000 38.1121152518 33.5369503963
Ti 4.4008080000 36.4182434628 35.9324468532
Ti 2.9338720000 38.9590511463 35.9324468532
Ti 5.8677440000 0.0000000000 0.0000000000
Ti 7.3346800000 2.5408076835 0.0000000000
Ti 7.3346800000 0.8469358945 2.3954964569
Ti 5.8677440000 3.3877435779 2.3954964569
Ti 5.8677440000 0.0000000000 4.7909929138
Ti 7.3346800000 2.5408076835 4.7909929138
Ti 7.3346800000 0.8469358945 7.1864893706
Ti 5.8677440000 3.3877435779 7.1864893706
Ti 5.8677440000 0.0000000000 9.5819858275
Ti 7.3346800000 2.5408076835 9.5819858275
Ti 7.3346800000 0.8469358945 11.9774822844
Ti 5.8677440000 3.3877435779 11.9774822844
Ti 5.8677440000 0.0000000000 14.3729787413
Ti 7.3346800000 2.5408076835 14.3729787413
Ti 7.3346800000 0.8469358945 16.7684751982
Ti 5.8677440000 3.3877435779 16.7684751982
Ti 5.8677440000 0.0000000000 19.1639716550
Ti 7.3346800000 2.5408076835 19.1639716550
Ti 7.3346800000 0.8469358945 21.5594681119
Ti 5.8677440000 3.3877435779 21.5594681119
Ti 5.8677440000 0.0000000000 23.9549645688
Ti 7.3346800000 2.5408076835 23.9549645688
Ti 7.3346800000 0.8469358945 26.3504610257
Ti 5.8677440000 3.3877435779 26.3504610257
Ti 5.8677440000 0.0000000000 28.7459574826
Ti 7.3346800000 2.5408076835 28.7459574826
Ti 7.3346800000 0.8469358945 31.1414539394
Ti 5.8677440000 3.3877435779 31.1414539394
Ti 5.8677440000 0.0000000000 33.5369503963
Ti 7.3346800000 2.5408076835 33.5369503963
Ti 7.3346800000 0.8469358945 35.9324468532
Ti 5.8677440000 3.3877435779 35.9324468532
Ti 5.8677440000 5.0816153669 0.0000000000
Ti 7.3346800000 7.6224230504 0.0000000000
Ti 7.3346800000 5.9285512614 2.3954964569
Ti 5.8677440000 8.4693589448 2.3954964569
Ti 5.8677440000 5.0816153669 4.7909929138
Ti 7.3346800000 7.6224230504 4.7909929138
Ti 7.3346800000 5.9285512614 7.1864893706
Ti 5.8677440000 8.4693589448 7.1864893706
Ti 5.8677440000 5.0816153669 9.5819858275
Ti 7.3346800000 7.6224230504 9.5819858275
Ti 7.3346800000 5.9285512614 11.9774822844
Ti 5.8677440000 8.4693589448 11.9774822844
Ti 5.8677440000 5.0816153669 14.3729787413
Ti 7.3346800000 7.6224230504 14.3729787413
Ti 7.3346800000 5.9285512614 16.7684751982
Ti 5.8677440000 8.4693589448 16.7684751982
Ti 5.8677440000 5.0816153669 19.1639716550
Ti 7.3346800000 7.6224230504 19.1639716550
Ti 7.3346800000 5.9285512614 21.5594681119
Ti 5.8677440000 8.4693589448 21.5594681119
Ti 5.8677440000 5.0816153669 23.9549645688
Ti 7.3346800000 7.6224230504 23.9549645688
Ti 7.3346800000 5.9285512614 26.3504610257
Ti 5.8677440000 8.4693589448 26.3504610257
Ti 5.8677440000 5.0816153669 28.7459574826
Ti 7.3346800000 7.6224230504 28.7459574826
Ti 7.3346800000 5.9285512614 31.1414539394
Ti 5.8677440000 8.4693589448 31.1414539394
Ti 5.8677440000 5.0816153669 33.5369503963
Ti 7.3346800000 7.6224230504 33.5369503963
Ti 7.3346800000 5.9285512614 35.9324468532
Ti 5.8677440000 8.4693589448 35.9324468532
Ti 5.8677440000 10.1632307338 0.0000000000
Ti 7.3346800000 12.7040384173 0.0000000000
Ti 7.3346800000 11.0101666283 2.3954964569
Ti 5.8677440000 13.5509743117 2.3954964569
Ti 5.8677440000 10.1632307338 4.7909929138
Ti 7.3346800000 12.7040384173 4.7909929138
Ti 7.3346800000 11.0101666283 7.1864893706
Ti 5.8677440000 13.5509743117 7.1864893706
Ti 5.8677440000 10.1632307338 9.5819858275
Ti 7.3346800000 12.7040384173 9.5819858275
Ti 7.3346800000 11.0101666283 11.9774822844
Ti 5.8677440000 13.5509743117 11.9774822844
Ti 5.8677440000 10.1632307338 14.3729787413
Ti 7.3346800000 12.7040384173 14.3729787413
Ti 7.3346800000 11.0101666283 16.7684751982
Ti 5.8677440000 13.5509743117 16.7684751982
Ti 5.8677440000 10.1632307338 19.1639716550
Ti 7.3346800000 12.7040384173 19.1639716550
Ti 7.3346800000 11.0101666283 21.5594681119
Ti 5.8677440000 13.5509743117 21.5594681119
Ti 5.8677440000 10.1632307338 23.9549645688
Ti 7.3346800000 12.7040384173 23.9549645688
Ti 7.3346800000 11.0101666283 26.3504610257
Ti 5.8677440000 13.5509743117 26.3504610257
Ti 5.8677440000 10.1632307338 28.7459574826
Ti 7.3346800000 12.7040384173 28.7459574826
Ti 7.3346800000 11.0101666283 31.1414539394
Ti 5.8677440000 13.5509743117 31.1414539394
Ti 5.8677440000 10.1632307338 33.5369503963
Ti 7.3346800000 12.7040384173 33.5369503963
Ti 7.3346800000 11.0101666283 35.9324468532
Ti 5.8677440000 13.5509743117 35.9324468532
Ti 5.8677440000 15.2448461007 0.0000000000
Ti 7.3346800000 17.7856537842 0.0000000000
Ti 7.3346800000 16.0917819952 2.3954964569
Ti 5.8677440000 18.6325896786 2.3954964569
Ti 5.8677440000 15.2448461007 4.7909929138
Ti 7.3346800000 17.7856537842 4.7909929138
Ti 7.3346800000 16.0917819952 7.1864893706
Ti 5.8677440000 18.6325896786 7.1864893706
Ti 5.8677440000 15.2448461007 9.5819858275
Ti 7.3346800000 17.7856537842 9.5819858275
Ti 7.3346800000 16.0917819952 11.9774822844
Ti 5.8677440000 18.6325896786 11.9774822844
Ti 5.8677440000 15.2448461007 14.3729787413
Ti 7.3346800000 17.7856537842 14.3729787413
Ti 7.3346800000 16.0917819952 16.7684751982
Ti 5.8677440000 18.6325896786 16.7684751982
Ti 5.8677440000 15.2448461007 19.1639716550
Ti 7.3346800000 17.7856537842 19.1639716550
Ti 7.3346800000 16.0917819952 21.5594681119
Ti 5.8677440000 18.6325896786 21.5594681119
Ti 5.8677440000 15.2448461007 23.9549645688
Ti 7.3346800000 17.7856537842 23.9549645688
Ti 7.3346800000 16.0917819952 26.3504610257
Ti 5.8677440000 18.6325896786 26.3504610257
Ti 5.8677440000 15.2448461007 28.7459574826
Ti 7.3346800000 17.7856537842 28.7459574826
Ti 7.3346800000 16.0917819952 31.1414539394
Ti 5.8677440000 18.6325896786 31.1414539394
Ti 5.8677440000 15.2448461007 33.5369503963
Ti 7.3346800000 17.7856537842 33.5369503963
Ti 7.3346800000 16.0917819952 35.9324468532
Ti 5.8677440000 18.6325896786 35.9324468532
Ti 5.8677440000 20.3264614676 0.0000000000
Ti 7.3346800000 22.8672691511 0.0000000000
Ti 7.3346800000 21.1733973621 2.3954964569
Ti 5.8677440000 23.7142050456 2.3954964569
Ti 5.8677440000 20.3264614676 4.7909929138
Ti 7.3346800000 22.8672691511 4.7909929138
Ti 7.3346800000 21.1733973621 7.1864893706
Ti 5.8677440000 23.7142050456 7.1864893706
Ti 5.8677440000 20.3264614676 9.5819858275
Ti 7.3346800000 22.8672691511 9.5819858275
Ti 7.3346800000 21.1733973621 11.9774822844
Ti 5.8677440000 23.7142050456 11.9774822844
Ti 5.8677440000 20.3264614676 14.3729787413
Ti 7.3346800000 22.8672691511 14.3729787413
Ti 7.3346800000 21.1733973621 16.7684751982
Ti 5.8677440000 23.7142050456 16.7684751982
Ti 5.8677440000 20.3264614676 19.1639716550
Ti 7.3346800000 22.8672691511 19.1639716550
Ti 7.3346800000 21.1733973621 21.5594681119
Ti 5.8677440000 23.7142050456 21.5594681119
Ti 5.8677440000 20.3264614676 23.9549645688
Ti 7.3346800000 22.8672691511 23.9549645688
Ti 7.3346800000 21.1733973621 26.3504610257
Ti 5.8677440000 23.7142050456 26.3504610257
Ti 5.8677440000 20.3264614676 28.7459574826
Ti 7.3346800000 22.8672691511 28.7459574826
Ti 7.3346800000 21.1733973621 31.1414539394
Ti 5.8677440000 23.7142050456 31.1414539394
Ti 5.8677440000 20.3264614676 33.5369503963
Ti 7.3346800000 22.8672691511 33.5369503963
Ti 7.3346800000 21.1733973621 35.9324468532
Ti 5.8677440000 23.7142050456 35.9324468532
Ti 5.8677440000 25.4080768345 0.0000000000
Ti 7.3346800000 27.9488845180 0.0000000000
Ti 7.3346800000 26.2550127290 2.3954964569
Ti 5.8677440000 28.7958204125 2.3954964569
Ti 5.8677440000 25.4080768345 4.7909929138
Ti 7.3346800000 27.9488845180 4.7909929138
Ti 7.3346800000 26.2550127290 7.1864893706
Ti 5.8677440000 28.7958204125 7.1864893706
Ti 5.8677440000 25.4080768345 9.5819858275
Ti 7.3346800000 27.9488845180 9.5819858275
Ti 7.3346800000 26.2550127290 11.9774822844
Ti 5.8677440000 28.7958204125 11.9774822844
Ti 5.8677440000 25.4080768345 14.3729787413
Ti 7.3346800000 27.9488845180 14.3729787413
Ti 7.3346800000 26.2550127290 16.7684751982
Ti 5.8677440000 28.7958204125 16.7684751982
Ti 5.8677440000 25.4080768345 19.1639716550
Ti 7.3346800000 27.9488845180 19.1639716550
Ti 7.3346800000 26.2550127290 21.5594681119
Ti 5.8677440000 28.7958204125 21.5594681119
Ti 5.8677440000 25.4080768345 23.9549645688
Ti 7.3346800000 27.9488845180 23.9549645688
Ti 7.3346800000 26.2550127290 26.3504610257
Ti 5.8677440000 28.7958204125 26.3504610257
Ti 5.8677440000 25.4080768345 28.7459574826
Ti 7.3346800000 27.9488845180 28.7459574826
Ti 7.3346800000 26.2550127290 31.1414539394
Ti 5.8677440000 28.7958204125 31.1414539394
Ti 5.8677440000 25.4080768345 33.5369503963
Ti 7.3346800000 27.9488845180 33.5369503963
Ti 7.3346800000 26.2550127290 35.9324468532
Ti 5.8677440000 28.7958204125 35.9324468532
Ti 5.8677440000 30.4896922014 0.0000000000
Ti 7.3346800000 33.0304998849 0.0000000000
Ti 7.3346800000 31.3366280959 2.3954964569
Ti 5.8677440000 33.8774357794 2.3954964569
Ti 5.8677440000 30.4896922014 4.7909929138
Ti 7.3346800000 33.0304998849 4.7909929138
Ti 7.3346800000 31.3366280959 7.1864893706
Ti 5.8677440000 33.8774357794 7.1864893706
Ti 5.8677440000 30.4896922014 9.5819858275
Ti 7.3346800000 33.0304998849 9.5819858275
Ti 7.3346800000 31.3366280959 11.9774822844
Ti 5.8677440000 33.8774357794 11.9774822844
Ti 5.8677440000 30.4896922014 14.3729787413
Ti 7.3346800000 33.0304998849 14.3729787413
Ti 7.3346800000 31.3366280959 16.7684751982
Ti 5.8677440000 33.8774357794 16.7684751982
Ti 5.8677440000 30.4896922014 19.1639716550
Ti 7.3346800000 33.0304998849 19.1639716550
Ti 7.3346800000 31.3366280959 21.5594681119
Ti 5.8677440000 33.8774357794 21.5594681119
Ti 5.8677440000 30.4896922014 23.9549645688
Ti 7.3346800000 33.0304998849 23.9549645688
Ti 7.3346800000 31.3366280959 26.3504610257
Ti 5.8677440000 33.8774357794 26.3504610257
Ti 5.8677440000 30.4896922014 28.7459574826
Ti 7.3346800000 33.0304998849 28.7459574826
Ti 7.3346800000 31.3366280959 31.1414539394
Ti 5.8677440000 33.8774357794 31.1414539394
Ti 5.8677440000 30.4896922014 33.5369503963
Ti 7.3346800000 33.0304998849 33.5369503963
Ti 7.3346800000 31.3366280959 35.9324468532
Ti 5.8677440000 33.8774357794 35.9324468532
Ti 5.8677440000 35.5713075683 0.0000000000
Ti 7.3346800000 38.1121152518 0.0000000000
Ti 7.3346800000 36.4182434628 2.3954964569
Ti 5.8677440000 38.9590511463 2.3954964569
Ti 5.8677440000 35.5713075683 4.7909929138
Ti 7.3346800000 38.1121152518 4.7909929138
Ti 7.3346800000 36.4182434628 7.1864893706
Ti 5.8677440000 38.9590511463 7.1864893706
Ti 5.8677440000 35.5713075683 9.5819858275
Ti 7.3346800000 38.1121152518 9.5819858275
Ti 7.3346800000 36.4182434628 11.9774822844
Ti 5.8677440000 38.9590511463 11.9774822844
Ti 5.8677440000 35.5713075683 14.3729787413
Ti 7.3346800000 38.1121152518 14.3729787413
Ti 7.3346800000 36.4182434628 16.7684751982
Ti 5.8677440000 38.9590511463 16.7684751982
Ti 5.8677440000 35.5713075683 19.1639716550
Ti 7.3346800000 38.1121152518 19.1639716550
Ti 7.3346800000 36.4182434628 21.5594681119
Ti 5.8677440000 38.9590511463 21.5594681119
Ti 5.8677440000 35.5713075683 23.9549645688
Ti 7.3346800000 38.1121152518 23.9549645688
Ti 7.3346800000 36.4182434628 26.3504610257
Ti 5.8677440000 38.9590511463 26.3504610257
Ti 5.8677440000 35.5713075683 28.7459574826
Ti 7.3346800000 38.1121152518 28.7459574826
Ti 7.3346800000 36.4182434628 31.1414539394
Ti 5.8677440000 38.9590511463 31.1414539394
Ti 5.8677440000 35.5713075683 33.5369503963
Ti 7.3346800000 38.1121152518 33.5369503963
Ti 7.3346800000 36.4182434628 35.9324468532
Ti 5.8677440000 38.9590511463 35.9324468532
Ti 8.8016160000 0.0000000000 0.0000000000
Ti 10.2685520000 2.5408076835 0.0000000000
Ti 10.2685520000 0.8469358945 2.3954964569
Ti 8.8016160000 3.3877435779 2.3954964569
Ti 8.8016160000 0.0000000000 4.7909929138
Ti 10.2685520000 2.5408076835 4.7909929138
Ti 10.2685520000 0.8469358945 7.1864893706
Ti 8.8016160000 3.3877435779 7.1864893706
Ti 8.8016160000 0.0000000000 9.5819858275
Ti 10.2685520000 2.5408076835 9.5819858275
Ti 10.2685520000 0.8469358945 11.9774822844
Ti 8.8016160000 3.3877435779 11.9774822844
Ti 8.8016160000 0.0000000000 14.3729787413
Ti 10.2685520000 2.5408076835 14.3729787413
Ti 10.2685520000 0.8469358945 16.7684751982
Ti 8.8016160000 3.3877435779 16.7684751982
Ti 8.8016160000 0.0000000000 19.1639716550
Ti 10.2685520000 2.5408076835 19.1639716550
Ti 10.2685520000 0.8469358945 21.5594681119
Ti 8.8016160000 3.3877435779 21.5594681119
Ti 8.8016160000 0.0000000000 23.9549645688
Ti 10.2685520000 2.5408076835 23.9549645688
Ti 10.2685520000 0.8469358945 26.3504610257
Ti 8.8016160000 3.3877435779 26.3504610257
Ti 8.8016160000 0.0000000000 28.7459574826
Ti 10.2685520000 2.5408076835 28.7459574826
Ti 10.2685520000 0.8469358945 31.1414539394
Ti 8.8016160000 3.3877435779 31.1414539394
Ti 8.8016160000 0.0000000000 33.5369503963
Ti 10.2685520000 2.5408076835 33.5369503963
Ti 10.2685520000 0.8469358945 35.9324468532
Ti 8.8016160000 3.3877435779 35.9324468532
Ti 8.8016160000 5.0816153669 0.0000000000
Ti 10.2685520000 7.6224230504 0.0000000000
Ti 10.2685520000 5.9285512614 2.3954964569
Ti 8.8016160000 8.4693589448 2.3954964569
Ti 8.8016160000 5.0816153669 4.7909929138
Ti 10.2685520000 7.6224230504 4.7909929138
Ti 10.2685520000 5.9285512614 7.1864893706
Ti 8.8016160000 8.4693589448 7.1864893706
Ti 8.8016160000 5.0816153669 9.5819858275
Ti 10.2685520000 7.6224230504 9.5819858275
Ti 10.2685520000 5.9285512614 11.9774822844
Ti 8.8016160000 8.4693589448 11.9774822844
Ti 8.8016160000 5.0816153669 14.3729787413
Ti 10.2685520000 7.6224230504 14.3729787413
Ti 10.2685520000 5.9285512614 16.7684751982
Ti 8.8016160000 8.4693589448 16.7684751982
Ti 8.8016160000 5.0816153669 19.1639716550
Ti 10.2685520000 7.6224230504 19.1639716550
Ti 10.2685520000 5.9285512614 21.5594681119
Ti 8.8016160000 8.4693589448 21.5594681119
Ti 8.8016160000 5.0816153669 23.9549645688
Ti 10.2685520000 7.6224230504 23.9549645688
Ti 10.2685520000 5.9285512614 26.3504610257
Ti 8.8016160000 8.4693589448 26.3504610257
Ti 8.8016160000 5.0816153669 28.7459574826
Ti 10.2685520000 7.6224230504 28.7459574826
Ti 10.2685520000 5.9285512614 31.1414539394
Ti 8.8016160000 8.4693589448 31.1414539394
Ti 8.8016160000 5.0816153669 33.5369503963
Ti 10.2685520000 7.6224230504 33.5369503963
Ti 10.2685520000 5.9285512614 35.9324468532
Ti 8.8016160000 8.4693589448 35.9324468532
Ti 8.8016160000 10.1632307338 0.0000000000
Ti 10.2685520000 12.7040384173 0.0000000000
Ti 10.2685520000 11.0101666283 2.3954964569
Ti 8.8016160000 13.5509743117 2.3954964569
Ti 8.8016160000 10.1632307338 4.7909929138
Ti 10.2685520000 12.7040384173 4.7909929138
Ti 10.2685520000 11.0101666283 7.1864893706
Ti 8.8016160000 13.5509743117 7.1864893706
Ti 8.8016160000 10.1632307338 9.5819858275
Ti 10.2685520000 12.7040384173 9.5819858275
Ti 10.2685520000 11.0101666283 11.9774822844
Ti 8.8016160000 13.5509743117 11.9774822844
Ti 8.8016160000 10.1632307338 14.3729787413
Ti 10.2685520000 12.7040384173 14.3729787413
Ti 10.2685520000 11.0101666283 16.7684751982
Ti 8.8016160000 13.5509743117 16.7684751982
Ti 8.8016160000 10.1632307338 19.1639716550
Ti 10.2685520000 12.7040384173 19.1639716550
Ti 10.2685520000 11.0101666283 21.5594681119
Ti 8.8016160000 13.5509743117 21.5594681119
Ti 8.8016160000 10.1632307338 23.9549645688
Ti 10.2685520000 12.7040384173 23.9549645688
Ti 10.2685520000 11.0101666283 26.3504610257
Ti 8.8016160000 13.5509743117 26.3504610257
Ti 8.8016160000 10.1632307338 28.7459574826
Ti 10.2685520000 12.7040384173 28.7459574826
Ti 10.2685520000 11.0101666283 31.1414539394
Ti 8.8016160000 13.5509743117 31.1414539394
Ti 8.8016160000 10.1632307338 33.5369503963
Ti 10.2685520000 12.7040384173 33.5369503963
Ti 10.2685520000 11.0101666283 35.9324468532
Ti 8.8016160000 13.5509743117 35.9324468532
Ti 8.8016160000 15.2448461007 0.0000000000
Ti 10.2685520000 17.7856537842 0.0000000000
Ti 10.2685520000 16.0917819952 2.3954964569
Ti 8.8016160000 18.6325896786 2.3954964569
Ti 8.8016160000 15.2448461007 4.7909929138
Ti 10.2685520000 17.7856537842 4.7909929138
Ti 10.2685520000 16.0917819952 7.1864893706
Ti 8.8016160000 18.6325896786 7.1864893706
Ti 8.8016160000 15.2448461007 9.5819858275
Ti 10.2685520000 17.7856537842 9.5819858275
Ti 10.2685520000 16.0917819952 11.9774822844
Ti 8.8016160000 18.6325896786 11.9774822844
Ti 8.8016160000 15.2448461007 14.3729787413
Ti 10.2685520000 17.7856537842 14.3729787413
Ti 10.2685520000 16.0917819952 16.7684751982
Ti 8.8016160000 18.6325896786 16.7684751982
Ti 8.8016160000 15.2448461007 19.1639716550
Ti 10.2685520000 17.7856537842 19.1639716550
Ti 10.2685520000 16.0917819952 21.5594681119
Ti 8.8016160000 18.6325896786 21.5594681119
Ti 8.8016160000 15.2448461007 23.9549645688
Ti 10.2685520000 17.7856537842 23.9549645688
Ti 10.2685520000 16.0917819952 26.3504610257
Ti 8.8016160000 18.6325896786 26.3504610257
Ti 8.8016160000 15.2448461007 28.7459574826
Ti 10.2685520000 17.7856537842 28.7459574826
Ti 10.2685520000 16.0917819952 31.1414539394
Ti 8.8016160000 18.6325896786 31.1414539394
Ti 8.8016160000 15.2448461007 33.5369503963
Ti 10.2685520000 17.7856537842 33.5369503963
Ti 10.2685520000 16.0917819952 35.9324468532
Ti 8.8016160000 18.6325896786 35.9324468532
Ti 8.8016160000 20.3264614676 0.0000000000
Ti 10.2685520000 22.8672691511 0.0000000000
Ti 10.2685520000 21.1733973621 2.3954964569
Ti 8.8016160000 23.7142050456 2.3954964569
Ti 8.8016160000 20.3264614676 4.7909929138
Ti 10.2685520000 22.8672691511 4.7909929138
Ti 10.2685520000 21.1733973621 7.1864893706
Ti 8.8016160000 23.7142050456 7.1864893706
Ti 8.8016160000 20.3264614676 9.5819858275
Ti 10.2685520000 22.8672691511 9.5819858275
Ti 10.2685520000 21.1733973621 11.9774822844
Ti 8.8016160000 23.7142050456 11.9774822844
Ti 8.8016160000 20.3264614676 14.3729787413
Ti 10.2685520000 22.8672691511 14.3729787413
Ti 10.2685520000 21.1733973621 16.7684751982
Ti 8.8016160000 23.7142050456 16.7684751982
Ti 8.8016160000 20.3264614676 19.1639716550
Ti 10.2685520000 22.8672691511 19.1639716550
Ti 10.2685520000 21.1733973621 21.5594681119
Ti 8.8016160000 23.7142050456 21.5594681119
Ti 8.8016160000 20.3264614676 23.9549645688
Ti 10.2685520000 22.8672691511 23.9549645688
Ti 10.2685520000 21.1733973621 26.3504610257
Ti 8.8016160000 23.7142050456 26.3504610257
Ti 8.8016160000 20.3264614676 28.7459574826
Ti 10.2685520000 22.8672691511 28.7459574826
Ti 10.2685520000 21.1733973621 31.1414539394
Ti 8.8016160000 23.7142050456 31.1414539394
Ti 8.8016160000 20.3264614676 33.5369503963
Ti 10.2685520000 22.8672691511 33.5369503963
Ti 10.2685520000 21.1733973621 35.9324468532
Ti 8.8016160000 23.7142050456 35.9324468532
Ti 8.8016160000 25.4080768345 0.0000000000
Ti 10.2685520000 27.9488845180 0.0000000000
Ti 10.2685520000 26.2550127290 2.3954964569
Ti 8.8016160000 28.7958204125 2.3954964569
Ti 8.8016160000 25.4080768345 4.7909929138
Ti 10.2685520000 27.9488845180 4.7909929138
Ti 10.2685520000 26.2550127290 7.1864893706
Ti 8.8016160000 28.7958204125 7.1864893706
Ti 8.8016160000 25.4080768345 9.5819858275
Ti 10.2685520000 27.9488845180 9.5819858275
Ti 10.2685520000 26.2550127290 11.9774822844
Ti 8.8016160000 28.7958204125 11.9774822844
Ti 8.8016160000 25.4080768345 14.3729787413
Ti 10.2685520000 27.9488845180 14.3729787413
Ti 10.2685520000 26.2550127290 16.7684751982
Ti 8.8016160000 28.7958204125 16.7684751982
Ti 8.8016160000 25.4080768345 19.1639716550
Ti 10.2685520000 27.9488845180 19.1639716550
Ti 10.2685520000 26.2550127290 21.5594681119
Ti 8.8016160000 28.7958204125 21.5594681119
Ti 8.8016160000 25.4080768345 23.9549645688
Ti 10.2685520000 27.9488845180 23.9549645688
Ti 10.2685520000 26.2550127290 26.3504610257
Ti 8.8016160000 28.7958204125 26.3504610257
Ti 8.8016160000 25.4080768345 28.7459574826
Ti 10.2685520000 27.9488845180 28.7459574826
Ti 10.2685520000 26.2550127290 31.1414539394
Ti 8.8016160000 28.7958204125 31.1414539394
Ti 8.8016160000 25.4080768345 33.5369503963
Ti 10.2685520000 27.9488845180 33.5369503963
Ti 10.2685520000 26.2550127290 35.9324468532
Ti 8.8016160000 28.7958204125 35.9324468532
Ti 8.8016160000 30.4896922014 0.0000000000
Ti 10.2685520000 33.0304998849 0.0000000000
Ti 10.2685520000 31.3366280959 2.3954964569
Ti 8.8016160000 33.8774357794 2.3954964569
Ti 8.8016160000 30.4896922014 4.7909929138
Ti 10.2685520000 33.0304998849 4.7909929138
Ti 10.2685520000 31.3366280959 7.1864893706
Ti 8.8016160000 33.8774357794 7.1864893706
Ti 8.8016160000 30.4896922014 9.5819858275
Ti 10.2685520000 33.0304998849 9.5819858275
Ti 10.2685520000 31.3366280959 11.9774822844
Ti 8.8016160000 33.8774357794 11.9774822844
Ti 8.8016160000 30.4896922014 14.3729787413
Ti 10.2685520000 33.0304998849 14.3729787413
Ti 10.2685520000 31.3366280959 16.7684751982
Ti 8.8016160000 33.8774357794 16.7684751982
Ti 8.8016160000 30.4896922014 19.1639716550
Ti 10.2685520000 33.0304998849 19.1639716550
Ti 10.2685520000 31.3366280959 21.5594681119
Ti 8.8016160000 33.8774357794 21.5594681119
Ti 8.8016160000 30.4896922014 23.9549645688
Ti 10.2685520000 33.0304998849 23.9549645688
Ti 10.2685520000 31.3366280959 26.3504610257
Ti 8.8016160000 33.8774357794 26.3504610257
Ti 8.8016160000 30.4896922014 28.7459574826
Ti 10.2685520000 33.0304998849 28.7459574826
Ti 10.2685520000 31.3366280959 31.1414539394
Ti 8.8016160000 33.8774357794 31.1414539394
Ti 8.8016160000 30.4896922014 33.5369503963
Ti 10.2685520000 33.0304998849 33.5369503963
Ti 10.2685520000 31.3366280959 35.9324468532
Ti 8.8016160000 33.8774357794 35.9324468532
Ti 8.8016160000 35.5713075683 0.0000000000
Ti 10.2685520000 38.1121152518 0.0000000000
Ti 10.2685520000 36.4182434628 2.3954964569
Ti 8.8016160000 38.9590511463 2.3954964569
Ti 8.8016160000 35.5713075683 4.7909929138
Ti 10.2685520000 38.1121152518 4.7909929138
Ti 10.2685520000 36.4182434628 7.1864893706
Ti 8.8016160000 38.9590511463 7.1864893706
Ti 8.8016160000 35.5713075683 9.5819858275
Ti 10.2685520000 38.1121152518 9.5819858275
Ti 10.2685520000 36.4182434628 11.9774822844
Ti 8.8016160000 38.9590511463 11.9774822844
Ti 8.8016160000 35.5713075683 14.3729787413
Ti 10.2685520000 38.1121152518 14.3729787413
Ti 10.2685520000 36.4182434628 16.7684751982
Ti 8.8016160000 38.9590511463 16.7684751982
Ti 8.8016160000 35.5713075683 19.1639716550
Ti 10.2685520000 38.1121152518 19.1639716550
Ti 10.2685520000 36.4182434628 21.5594681119
Ti 8.8016160000 38.9590511463 21.5594681119
Ti 8.8016160000 35.5713075683 23.9549645688
Ti 10.2685520000 38.1121152518 23.9549645688
Ti 10.2685520000 36.4182434628 26.3504610257
Ti 8.8016160000 38.9590511463 26.3504610257
Ti 8.8016160000 35.5713075683 28.7459574826
Ti 10.2685520000 38.1121152518 28.7459574826
Ti 10.2685520000 36.4182434628 31.1414539394
Ti 8.8016160000 38.9590511463 31.1414539394
Ti 8.8016160000 35.5713075683 33.5369503963
Ti 10.2685520000 38.1121152518 33.5369503963
Ti 10.2685520000 36.4182434628 35.9324468532
Ti 8.8016160000 38.9590511463 35.9324468532
Ti 11.7354880000 0.0000000000 0.0000000000
Ti 13.2024240000 2.5408076835 0.0000000000
Ti 13.2024240000 0.8469358945 2.3954964569
Ti 11.7354880000 3.3877435779 2.3954964569
Ti 11.7354880000 0.0000000000 4.7909929138
Ti 13.2024240000 2.5408076835 4.7909929138
Ti 13.2024240000 0.8469358945 7.1864893706
Ti 11.7354880000 3.3877435779 7.1864893706
Ti 11.7354880000 0.0000000000 9.5819858275
Ti 13.2024240000 2.5408076835 9.5819858275
Ti 13.2024240000 0.8469358945 11.9774822844
Ti 11.7354880000 3.3877435779 11.9774822844
Ti 11.7354880000 0.0000000000 14.3729787413
Ti 13.2024240000 2.5408076835 14.3729787413
Ti 13.2024240000 0.8469358945 16.7684751982
Ti 11.7354880000 3.3877435779 16.7684751982
Ti 11.7354880000 0.0000000000 19.1639716550
Ti 13.2024240000 2.5408076835 19.1639716550
Ti 13.2024240000 0.8469358945 21.5594681119
Ti 11.7354880000 3.3877435779 21.5594681119
Ti 11.7354880000 0.0000000000 23.9549645688
Ti 13.2024240000 2.5408076835 23.9549645688
Ti 13.2024240000 0.8469358945 26.3504610257
Ti 11.7354880000 3.3877435779 26.3504610257
Ti 11.7354880000 0.0000000000 28.7459574826
Ti 13.2024240000 2.5408076835 28.7459574826
Ti 13.2024240000 0.8469358945 31.1414539394
Ti 11.7354880000 3.3877435779 31.1414539394
Ti 11.7354880000 0.0000000000 33.5369503963
Ti 13.2024240000 2.5408076835 33.5369503963
Ti 13.2024240000 0.8469358945 35.9324468532
Ti 11.7354880000 3.3877435779 35.9324468532
Ti 11.7354880000 5.0816153669 0.0000000000
Ti 13.2024240000 7.6224230504 0.0000000000
Ti 13.2024240000 5.9285512614 2.3954964569
Ti 11.7354880000 8.4693589448 2.3954964569
Ti 11.7354880000 5.0816153669 4.7909929138
Ti 13.2024240000 7.6224230504 4.7909929138
Ti 13.2024240000 5.9285512614 7.1864893706
Ti 11.7354880000 8.4693589448 7.1864893706
Ti 11.7354880000 5.0816153669 9.5819858275
Ti 13.2024240000 7.6224230504 9.5819858275
Ti 13.2024240000 5.9285512614 11.9774822844
Ti 11.7354880000 8.4693589448 11.9774822844
Ti 11.7354880000 5.0816153669 14.3729787413
Ti 13.2024240000 7.6224230504 14.3729787413
Ti 13.2024240000 5.9285512614 16.7684751982
Ti 11.7354880000 8.4693589448 16.7684751982
Ti 11.7354880000 5.0816153669 19.1639716550
Ti 13.2024240000 7.6224230504 19.1639716550
Ti 13.2024240000 5.9285512614 21.5594681119
Ti 11.7354880000 8.4693589448 21.5594681119
Ti 11.7354880000 5.0816153669 23.9549645688
Ti 13.2024240000 7.6224230504 23.9549645688
Ti 13.2024240000 5.9285512614 26.3504610257
Ti 11.7354880000 8.4693589448 26.3504610257
Ti 11.7354880000 5.0816153669 28.7459574826
Ti 13.2024240000 7.6224230504 28.7459574826
Ti 13.2024240000 5.9285512614 31.1414539394
Ti 11.7354880000 8.4693589448 31.1414539394
Ti 11.7354880000 5.0816153669 33.5369503963
Ti 13.2024240000 7.6224230504 33.5369503963
Ti 13.2024240000 5.9285512614 35.9324468532
Ti 11.7354880000 8.4693589448 35.9324468532
Ti 11.7354880000 10.1632307338 0.0000000000
Ti 13.2024240000 12.7040384173 0.0000000000
Ti 13.2024240000 11.0101666283 2.3954964569
Ti 11.7354880000 13.5509743117 2.3954964569
Ti 11.7354880000 10.1632307338 4.7909929138
Ti 13.2024240000 12.7040384173 4.7909929138
Ti 13.2024240000 11.0101666283 7.1864893706
Ti 11.7354880000 13.5509743117 7.1864893706
Ti 11.7354880000 10.1632307338 9.5819858275
Ti 13.2024240000 12.7040384173 9.5819858275
Ti 13.2024240000 11.0101666283 11.9774822844
Ti 11.7354880000 13.5509743117 11.9774822844
Ti 11.7354880000 10.1632307338 14.3729787413
Ti 13.2024240000 12.7040384173 14.3729787413
Ti 13.2024240000 11.0101666283 16.7684751982
Ti 11.7354880000 13.5509743117 16.7684751982
Ti 11.7354880000 10.1632307338 19.1639716550
Ti 13.2024240000 12.7040384173 19.1639716550
Ti 13.2024240000 11.0101666283 21.5594681119
Ti 11.7354880000 13.5509743117 21.5594681119
Ti 11.7354880000 10.1632307338 23.9549645688
Ti 13.2024240000 12.7040384173 23.9549645688
Ti 13.2024240000 11.0101666283 26.3504610257
Ti 11.7354880000 13.5509743117 26.3504610257
Ti 11.7354880000 10.1632307338 28.7459574826
Ti 13.2024240000 12.7040384173 28.7459574826
Ti 13.2024240000 11.0101666283 31.1414539394
Ti 11.7354880000 13.5509743117 31.1414539394
Ti 11.7354880000 10.1632307338 33.5369503963
Ti 13.2024240000 12.7040384173 33.5369503963
Ti 13.2024240000 11.0101666283 35.9324468532
Ti 11.7354880000 13.5509743117 35.9324468532
Ti 11.7354880000 15.2448461007 0.0000000000
Ti 13.2024240000 17.7856537842 0.0000000000
Ti 13.2024240000 16.0917819952 2.3954964569
Ti 11.7354880000 18.6325896786 2.3954964569
Ti 11.7354880000 15.2448461007 4.7909929138
Ti 13.2024240000 17.7856537842 4.7909929138
Ti 13.2024240000 16.0917819952 7.1864893706
Ti 11.7354880000 18.6325896786 7.1864893706
Ti 11.7354880000 15.2448461007 9.5819858275
Ti 13.2024240000 17.7856537842 9.5819858275
Ti 13.2024240000 16.0917819952 11.9774822844
Ti 11.7354880000 18.6325896786 11.9774822844
Ti 11.7354880000 15.2448461007 14.3729787413
Ti 13.2024240000 17.7856537842 14.3729787413
Ti 13.2024240000 16.0917819952 16.7684751982
Ti 11.7354880000 18.6325896786 16.7684751982
Ti 11.7354880000 15.2448461007 19.1639716550
Ti 13.2024240000 17.7856537842 19.1639716550
Ti 13.2024240000 16.0917819952 21.5594681119
Ti 11.7354880000 18.6325896786 21.5594681119
Ti 11.7354880000 15.2448461007 23.9549645688
Ti 13.2024240000 17.7856537842 23.9549645688
Ti 13.2024240000 16.0917819952 26.3504610257
Ti 11.7354880000 18.6325896786 26.3504610257
Ti 11.7354880000 15.2448461007 28.7459574826
Ti 13.2024240000 17.7856537842 28.7459574826
Ti 13.2024240000 16.0917819952 31.1414539394
Ti 11.7354880000 18.6325896786 31.1414539394
Ti 11.7354880000 15.2448461007 33.5369503963
Ti 13.2024240000 17.7856537842 33.5369503963
Ti 13.2024240000 16.0917819952 35.9324468532
Ti 11.7354880000 18.6325896786 35.9324468532
Ti 11.7354880000 20.3264614676 0.0000000000
Ti 13.2024240000 22.8672691511 0.0000000000
Ti 13.2024240000 21.1733973621 2.3954964569
Ti 11.7354880000 23.7142050456 2.3954964569
Ti 11.7354880000 20.3264614676 4.7909929138
Ti 13.2024240000 22.8672691511 4.7909929138
Ti 13.2024240000 21.1733973621 7.1864893706
Ti 11.7354880000 23.7142050456 7.1864893706
Ti 11.7354880000 20.3264614676 9.5819858275
Ti 13.2024240000 22.8672691511 9.5819858275
Ti 13.2024240000 21.1733973621 11.9774822844
Ti 11.7354880000 23.7142050456 11.9774822844
Ti 11.7354880000 20.3264614676 14.3729787413
Ti 13.2024240000 22.8672691511 14.3729787413
Ti 13.2024240000 21.1733973621 16.7684751982
Ti 11.7354880000 23.7142050456 16.7684751982
Ti 11.7354880000 20.3264614676 19.1639716550
Ti 13.2024240000 22.8672691511 19.1639716550
Ti 13.2024240000 21.1733973621 21.5594681119
Ti 11.7354880000 23.7142050456 21.5594681119
Ti 11.7354880000 20.3264614676 23.9549645688
Ti 13.2024240000 22.8672691511 23.9549645688
Ti 13.2024240000 21.1733973621 26.3504610257
Ti 11.7354880000 23.7142050456 26.3504610257
Ti 11.7354880000 20.3264614676 28.7459574826
Ti 13.2024240000 22.8672691511 28.7459574826
Ti 13.2024240000 21.1733973621 31.1414539394
Ti 11.7354880000 23.7142050456 31.1414539394
Ti 11.7354880000 20.3264614676 33.5369503963
Ti 13.2024240000 22.8672691511 33.5369503963
Ti 13.2024240000 21.1733973621 35.9324468532
Ti 11.7354880000 23.7142050456 35.9324468532
Ti 11.7354880000 25.4080768345 0.0000000000
Ti 13.2024240000 27.9488845180 0.0000000000
Ti 13.2024240000 26.2550127290 2.3954964569
Ti 11.7354880000 28.7958204125 2.3954964569
Ti 11.7354880000 25.4080768345 4.7909929138
Ti 13.2024240000 27.9488845180 4.7909929138
Ti 13.2024240000 26.2550127290 7.1864893706
Ti 11.7354880000 28.7958204125 7.1864893706
Ti 11.7354880000 25.4080768345 9.5819858275
Ti 13.2024240000 27.9488845180 9.5819858275
Ti 13.2024240000 26.2550127290 11.9774822844
Ti 11.7354880000 28.7958204125 11.9774822844
Ti 11.7354880000 25.4080768345 14.3729787413
Ti 13.2024240000 27.9488845180 14.3729787413
Ti 13.2024240000 26.2550127290 16.7684751982
Ti 11.7354880000 28.7958204125 16.7684751982
Ti 11.7354880000 25.4080768345 19.1639716550
Ti 13.2024240000 27.9488845180 19.1639716550
Ti 13.2024240000 26.2550127290 21.5594681119
Ti 11.7354880000 28.7958204125 21.5594681119
Ti 11.7354880000 25.4080768345 23.9549645688
Ti 13.2024240000 27.9488845180 23.9549645688
Ti 13.2024240000 26.2550127290 26.3504610257
Ti 11.7354880000 28.7958204125 26.3504610257
Ti 11.7354880000 25.4080768345 28.7459574826
Ti 13.2024240000 27.9488845180 28.7459574826
Ti 13.2024240000 26.2550127290 31.1414539394
Ti 11.7354880000 28.7958204125 31.1414539394
Ti 11.7354880000 25.4080768345 33.5369503963
Ti 13.2024240000 27.9488845180 33.5369503963
Ti 13.2024240000 26.2550127290 35.9324468532
Ti 11.7354880000 28.7958204125 35.9324468532
Ti 11.7354880000 30.4896922014 0.0000000000
Ti 13.2024240000 33.0304998849 0.0000000000
Ti 13.2024240000 31.3366280959 2.3954964569
Ti 11.7354880000 33.8774357794 2.3954964569
Ti 11.7354880000 30.4896922014 4.7909929138
Ti 13.2024240000 33.0304998849 4.7909929138
Ti 13.2024240000 31.3366280959 7.1864893706
Ti 11.7354880000 33.8774357794 7.1864893706
Ti 11.7354880000 30.4896922014 9.5819858275
Ti 13.2024240000 33.0304998849 9.5819858275
Ti 13.2024240000 31.3366280959 11.9774822844
Ti 11.7354880000 33.8774357794 11.9774822844
Ti 11.7354880000 30.4896922014 14.3729787413
Ti 13.2024240000 33.0304998849 14.3729787413
Ti 13.2024240000 31.3366280959 16.7684751982
Ti 11.7354880000 33.8774357794 16.7684751982
Ti 11.7354880000 30.4896922014 19.1639716550
Ti 13.2024240000 33.0304998849 19.1639716550
Ti 13.2024240000 31.3366280959 21.5594681119
Ti 11.7354880000 33.8774357794 21.5594681119
Ti 11.7354880000 30.4896922014 23.9549645688
Ti 13.2024240000 33.0304998849 23.9549645688
Ti 13.2024240000 31.3366280959 26.3504610257
Ti 11.7354880000 33.8774357794 26.3504610257
Ti 11.7354880000 30.4896922014 28.7459574826
Ti 13.2024240000 33.0304998849 28.7459574826
Ti 13.2024240000 31.3366280959 31.1414539394
Ti 11.7354880000 33.8774357794 31.1414539394
Ti 11.7354880000 30.4896922014 33.5369503963
Ti 13.2024240000 33.0304998849 33.5369503963
Ti 13.2024240000 31.3366280959 35.9324468532
Ti 11.7354880000 33.8774357794 35.9324468532
Ti 11.7354880000 35.5713075683 0.0000000000
Ti 13.2024240000 38.1121152518 0.0000000000
Ti 13.2024240000 36.4182434628 2.3954964569
Ti 11.7354880000 38.9590511463 2.3954964569
Ti 11.7354880000 35.5713075683 4.7909929138
Ti 13.2024240000 38.1121152518 4.7909929138
Ti 13.2024240000 36.4182434628 7.1864893706
Ti 11.7354880000 38.9590511463 7.1864893706
Ti 11.7354880000 35.5713075683 9.5819858275
Ti 13.2024240000 38.1121152518 9.5819858275
Ti 13.2024240000 36.4182434628 11.9774822844
Ti 11.7354880000 38.9590511463 11.9774822844
Ti 11.7354880000 35.5713075683 14.3729787413
Ti 13.2024240000 38.1121152518 14.3729787413
Ti 13.2024240000 36.4182434628 16.7684751982
Ti 11.7354880000 38.9590511463 16.7684751982
Ti 11.7354880000 35.5713075683 19.1639716550
Ti 13.2024240000 38.1121152518 19.1639716550
Ti 13.2024240000 36.4182434628 21.5594681119
Ti 11.7354880000 38.9590511463 21.5594681119
Ti 11.7354880000 35.5713075683 23.9549645688
Ti 13.2024240000 38.1121152518 23.9549645688
Ti 13.2024240000 36.4182434628 26.3504610257
Ti 11.7354880000 38.9590511463 26.3504610257
Ti 11.7354880000 35.5713075683 28.7459574826
Ti 13.2024240000 38.1121152518 28.7459574826
Ti 13.2024240000 36.4182434628 31.1414539394
Ti 11.7354880000 38.9590511463 31.1414539394
Ti 11.7354880000 35.5713075683 33.5369503963
Ti 13.2024240000 38.1121152518 33.5369503963
Ti 13.2024240000 36.4182434628 35.9324468532
Ti 11.7354880000 38.9590511463 35.9324468532
Ti 14.6693600000 0.0000000000 0.0000000000
Ti 16.1362960000 2.5408076835 0.0000000000
Ti 16.1362960000 0.8469358945 2.3954964569
Ti 14.6693600000 3.3877435779 2.3954964569
Ti 14.6693600000 0.0000000000 4.7909929138
Ti 16.1362960000 2.5408076835 4.7909929138
Ti 16.1362960000 0.8469358945 7.1864893706
Ti 14.6693600000 3.3877435779 7.1864893706
Ti 14.6693600000 0.0000000000 9.5819858275
Ti 16.1362960000 2.5408076835 9.5819858275
Ti 16.1362960000 0.8469358945 11.9774822844
Ti 14.6693600000 3.3877435779 11.9774822844
Ti 14.6693600000 0.0000000000 14.3729787413
Ti 16.1362960000 2.5408076835 14.3729787413
Ti 16.1362960000 0.8469358945 16.7684751982
Ti 14.6693600000 3.3877435779 16.7684751982
Ti 14.6693600000 0.0000000000 19.1639716550
Ti 16.1362960000 2.5408076835 19.1639716550
Ti 16.1362960000 0.8469358945 21.5594681119
Ti 14.6693600000 3.3877435779 21.5594681119
Ti 14.6693600000 0.0000000000 23.9549645688
Ti 16.1362960000 2.5408076835 23.9549645688
Ti 16.1362960000 0.8469358945 26.3504610257
Ti 14.6693600000 3.3877435779 26.3504610257
Ti 14.6693600000 0.0000000000 28.7459574826
Ti 16.1362960000 2.5408076835 28.7459574826
Ti 16.1362960000 0.8469358945 31.1414539394
Ti 14.6693600000 3.3877435779 31.1414539394
Ti 14.6693600000 0.0000000000 33.5369503963
Ti 16.1362960000 2.5408076835 33.5369503963
Ti 16.1362960000 0.8469358945 35.9324468532
Ti 14.6693600000 3.3877435779 35.9324468532
Ti 14.6693600000 5.0816153669 0.0000000000
Ti 16.1362960000 7.6224230504 0.0000000000
Ti 16.1362960000 5.9285512614 2.3954964569
Ti 14.6693600000 8.4693589448 2.3954964569
Ti 14.6693600000 5.0816153669 4.7909929138
Ti 16.1362960000 7.6224230504 4.7909929138
Ti 16.1362960000 5.9285512614 7.1864893706
Ti 14.6693600000 8.4693589448 7.1864893706
Ti 14.6693600000 5.0816153669 9.5819858275
Ti 16.1362960000 7.6224230504 9.5819858275
Ti 16.1362960000 5.9285512614 11.9774822844
Ti 14.6693600000 8.4693589448 11.9774822844
Ti 14.6693600000 5.0816153669 14.3729787413
Ti 16.1362960000 7.6224230504 14.3729787413
Ti 16.1362960000 5.9285512614 16.7684751982
Ti 14.6693600000 8.4693589448 16.7684751982
Ti 14.6693600000 5.0816153669 19.1639716550
Ti 16.1362960000 7.6224230504 19.1639716550
Ti 16.1362960000 5.9285512614 21.5594681119
Ti 14.6693600000 8.4693589448 21.5594681119
Ti 14.6693600000 5.0816153669 23.9549645688
Ti 16.1362960000 7.6224230504 23.9549645688
Ti 16.1362960000 5.9285512614 26.3504610257
Ti 14.6693600000 8.4693589448 26.3504610257
Ti 14.6693600000 5.0816153669 28.7459574826
Ti 16.1362960000 7.6224230504 28.7459574826
Ti 16.1362960000 5.9285512614 31.1414539394
Ti 14.6693600000 8.4693589448 31.1414539394
Ti 14.6693600000 5.0816153669 33.5369503963
Ti 16.1362960000 7.6224230504 33.5369503963
Ti 16.1362960000 5.9285512614 35.9324468532
Ti 14.6693600000 8.4693589448 35.9324468532
Ti 14.6693600000 10.1632307338 0.0000000000
Ti 16.1362960000 12.7040384173 0.0000000000
Ti 16.1362960000 11.0101666283 2.3954964569
Ti 14.6693600000 13.5509743117 2.3954964569
Ti 14.6693600000 10.1632307338 4.7909929138
Ti 16.1362960000 12.7040384173 4.7909929138
Ti 16.1362960000 11.0101666283 7.1864893706
Ti 14.6693600000 13.5509743117 7.1864893706
Ti 14.6693600000 10.1632307338 9.5819858275
Ti 16.1362960000 12.7040384173 9.5819858275
Ti 16.1362960000 11.0101666283 11.9774822844
Ti 14.6693600000 13.5509743117 11.9774822844
Ti 14.6693600000 10.1632307338 14.3729787413
Ti 16.1362960000 12.7040384173 14.3729787413
Ti 16.1362960000 11.0101666283 16.7684751982
Ti 14.6693600000 13.5509743117 16.7684751982
Ti 14.6693600000 10.1632307338 19.1639716550
Ti 16.1362960000 12.7040384173 19.1639716550
Ti 16.1362960000 11.0101666283 21.5594681119
Ti 14.6693600000 13.5509743117 21.5594681119
Ti 14.6693600000 10.1632307338 23.9549645688
Ti 16.1362960000 12.7040384173 23.9549645688
Ti 16.1362960000 11.0101666283 26.3504610257
Ti 14.6693600000 13.5509743117 26.3504610257
Ti 14.6693600000 10.1632307338 28.7459574826
Ti 16.1362960000 12.7040384173 28.7459574826
Ti 16.1362960000 11.0101666283 31.1414539394
Ti 14.6693600000 13.5509743117 31.1414539394
Ti 14.6693600000 10.1632307338 33.5369503963
Ti 16.1362960000 12.7040384173 33.5369503963
Ti 16.1362960000 11.0101666283 35.9324468532
Ti 14.6693600000 13.5509743117 35.9324468532
Ti 14.6693600000 15.2448461007 0.0000000000
Ti 16.1362960000 17.7856537842 0.0000000000
Ti 16.1362960000 16.0917819952 2.3954964569
Ti 14.6693600000 18.6325896786 2.3954964569
Ti 14.6693600000 15.2448461007 4.7909929138
Ti 16.1362960000 17.7856537842 4.7909929138
Ti 16.1362960000 16.0917819952 7.1864893706
Ti 14.6693600000 18.6325896786 7.1864893706
Ti 14.6693600000 15.2448461007 9.5819858275
Ti 16.1362960000 17.7856537842 9.5819858275
Ti 16.1362960000 16.0917819952 11.9774822844
Ti 14.6693600000 18.6325896786 11.9774822844
Ti 14.6693600000 15.2448461007 14.3729787413
Ti 16.1362960000 17.7856537842 14.3729787413
Ti 16.1362960000 16.0917819952 16.7684751982
Ti 14.6693600000 18.6325896786 16.7684751982
Ti 14.6693600000 15.2448461007 19.1639716550
Ti 16.1362960000 17.7856537842 19.1639716550
Ti 16.1362960000 16.0917819952 21.5594681119
Ti 14.6693600000 18.6325896786 21.5594681119
Ti 14.6693600000 15.2448461007 23.9549645688
Ti 16.1362960000 17.7856537842 23.9549645688
Ti 16.1362960000 16.0917819952 26.3504610257
Ti 14.6693600000 18.6325896786 26.3504610257
Ti 14.6693600000 15.2448461007 28.7459574826
Ti 16.1362960000 17.7856537842 28.7459574826
Ti 16.1362960000 16.0917819952 31.1414539394
Ti 14.6693600000 18.6325896786 31.1414539394
Ti 14.6693600000 15.2448461007 33.5369503963
Ti 16.1362960000 17.7856537842 33.5369503963
Ti 16.1362960000 16.0917819952 35.9324468532
Ti 14.6693600000 18.6325896786 35.9324468532
Ti 14.6693600000 20.3264614676 0.0000000000
Ti 16.1362960000 22.8672691511 0.0000000000
Ti 16.1362960000 21.1733973621 2.3954964569
Ti 14.6693600000 23.7142050456 2.3954964569
Ti 14.6693600000 20.3264614676 4.7909929138
Ti 16.1362960000 22.8672691511 4.7909929138
Ti 16.1362960000 21.1733973621 7.1864893706
Ti 14.6693600000 23.7142050456 7.1864893706
Ti 14.6693600000 20.3264614676 9.5819858275
Ti 16.1362960000 22.8672691511 9.5819858275
Ti 16.1362960000 21.1733973621 11.9774822844
Ti 14.6693600000 23.7142050456 11.9774822844
Ti 14.6693600000 20.3264614676 14.3729787413
Ti 16.1362960000 22.8672691511 14.3729787413
Ti 16.1362960000 21.1733973621 16.7684751982
Ti 14.6693600000 23.7142050456 16.7684751982
Ti 14.6693600000 20.3264614676 19.1639716550
Ti 16.1362960000 22.8672691511 19.1639716550
Ti 16.1362960000 21.1733973621 21.5594681119
Ti 14.6693600000 23.7142050456 21.5594681119
Ti 14.6693600000 20.3264614676 23.9549645688
Ti 16.1362960000 22.8672691511 23.9549645688
Ti 16.1362960000 21.1733973621 26.3504610257
Ti 14.6693600000 23.7142050456 26.3504610257
Ti 14.6693600000 20.3264614676 28.7459574826
Ti 16.1362960000 22.8672691511 28.7459574826
Ti 16.1362960000 21.1733973621 31.1414539394
Ti 14.6693600000 23.7142050456 31.1414539394
Ti 14.6693600000 20.3264614676 33.5369503963
Ti 16.1362960000 22.8672691511 33.5369503963
Ti 16.1362960000 21.1733973621 35.9324468532
Ti 14.6693600000 23.7142050456 35.9324468532
Ti 14.6693600000 25.4080768345 0.0000000000
Ti 16.1362960000 27.9488845180 0.0000000000
Ti 16.1362960000 26.2550127290 2.3954964569
Ti 14.6693600000 28.7958204125 2.3954964569
Ti 14.6693600000 25.4080768345 4.7909929138
Ti 16.1362960000 27.9488845180 4.7909929138
Ti 16.1362960000 26.2550127290 7.1864893706
Ti 14.6693600000 28.7958204125 7.1864893706
Ti 14.6693600000 25.4080768345 9.5819858275
Ti 16.1362960000 27.9488845180 9.5819858275
Ti 16.1362960000 26.2550127290 11.9774822844
Ti 14.6693600000 28.7958204125 11.9774822844
Ti 14.6693600000 25.4080768345 14.3729787413
Ti 16.1362960000 27.9488845180 14.3729787413
Ti 16.1362960000 26.2550127290 16.7684751982
Ti 14.6693600000 28.7958204125 16.7684751982
Ti 14.6693600000 25.4080768345 19.1639716550
Ti 16.1362960000 27.9488845180 19.1639716550
Ti 16.1362960000 26.2550127290 21.5594681119
Ti 14.6693600000 28.7958204125 21.5594681119
Ti 14.6693600000 25.4080768345 23.9549645688
Ti 16.1362960000 27.9488845180 23.9549645688
Ti 16.1362960000 26.2550127290 26.3504610257
Ti 14.6693600000 28.7958204125 26.3504610257
Ti 14.6693600000 25.4080768345 28.7459574826
Ti 16.1362960000 27.9488845180 28.7459574826
Ti 16.1362960000 26.2550127290 31.1414539394
Ti 14.6693600000 28.7958204125 31.1414539394
Ti 14.6693600000 25.4080768345 33.5369503963
Ti 16.1362960000 27.9488845180 33.5369503963
Ti 16.1362960000 26.2550127290 35.9324468532
Ti 14.6693600000 28.7958204125 35.9324468532
Ti 14.6693600000 30.4896922014 0.0000000000
Ti 16.1362960000 33.0304998849 0.0000000000
Ti 16.1362960000 31.3366280959 2.3954964569
Ti 14.6693600000 33.8774357794 2.3954964569
Ti 14.6693600000 30.4896922014 4.7909929138
Ti 16.1362960000 33.0304998849 4.7909929138
Ti 16.1362960000 31.3366280959 7.1864893706
Ti 14.6693600000 33.8774357794 7.1864893706
Ti 14.6693600000 30.4896922014 9.5819858275
Ti 16.1362960000 33.0304998849 9.5819858275
Ti 16.1362960000 31.3366280959 11.9774822844
Ti 14.6693600000 33.8774357794 11.9774822844
Ti 14.6693600000 30.4896922014 14.3729787413
Ti 16.1362960000 33.0304998849 14.3729787413
Ti 16.1362960000 31.3366280959 16.7684751982
Ti 14.6693600000 33.8774357794 16.7684751982
Ti 14.6693600000 30.4896922014 19.1639716550
Ti 16.1362960000 33.0304998849 19.1639716550
Ti 16.1362960000 31.3366280959 21.5594681119
Ti 14.6693600000 33.8774357794 21.5594681119
Ti 14.6693600000 30.4896922014 23.9549645688
Ti 16.1362960000 33.0304998849 23.9549645688
Ti 16.1362960000 31.3366280959 26.3504610257
Ti 14.6693600000 33.8774357794 26.3504610257
Ti 14.6693600000 30.4896922014 28.7459574826
Ti 16.1362960000 33.0304998849 28.7459574826
Ti 16.1362960000 31.3366280959 31.1414539394
Ti 14.6693600000 33.8774357794 31.1414539394
Ti 14.6693600000 30.4896922014 33.5369503963
Ti 16.1362960000 33.0304998849 33.5369503963
Ti 16.1362960000 31.3366280959 35.9324468532
Ti 14.6693600000 33.8774357794 35.9324468532
Ti 14.6693600000 35.5713075683 0.0000000000
Ti 16.1362960000 38.1121152518 0.0000000000
Ti 16.1362960000 36.4182434628 2.3954964569
Ti 14.6693600000 38.9590511463 2.3954964569
Ti 14.6693600000 35.5713075683 4.7909929138
Ti 16.1362960000 38.1121152518 4.7909929138
Ti 16.1362960000 36.4182434628 7.1864893706
Ti 14.6693600000 38.9590511463 7.1864893706
Ti 14.6693600000 35.5713075683 9.5819858275
Ti 16.1362960000 38.1121152518 9.5819858275
Ti 16.1362960000 36.4182434628 11.9774822844
Ti 14.6693600000 38.9590511463 11.9774822844
Ti 14.6693600000 35.5713075683 14.3729787413
Ti 16.1362960000 38.1121152518 14.3729787413
Ti 16.1362960000 36.4182434628 16.7684751982
Ti 14.6693600000 38.9590511463 16.7684751982
Ti 14.6693600000 35.5713075683 19.1639716550
Ti 16.1362960000 38.1121152518 19.1639716550
Ti 16.1362960000 36.4182434628 21.5594681119
Ti 14.6693600000 38.9590511463 21.5594681119
Ti 14.6693600000 35.5713075683 23.9549645688
Ti 16.1362960000 38.1121152518 23.9549645688
Ti 16.1362960000 36.4182434628 26.3504610257
Ti 14.6693600000 38.9590511463 26.3504610257
Ti 14.6693600000 35.5713075683 28.7459574826
Ti 16.1362960000 38.1121152518 28.7459574826
Ti 16.1362960000 36.4182434628 31.1414539394
Ti 14.6693600000 38.9590511463 31.1414539394
Ti 14.6693600000 35.5713075683 33.5369503963
Ti 16.1362960000 38.1121152518 33.5369503963
Ti 16.1362960000 36.4182434628 35.9324468532
Ti 14.6693600000 38.9590511463 35.9324468532
Ti 17.6032320000 0.0000000000 0.0000000000
Ti 19.0701680000 2.5408076835 0.0000000000
Ti 19.0701680000 0.8469358945 2.3954964569
Ti 17.6032320000 3.3877435779 2.3954964569
Ti 17.6032320000 0.0000000000 4.7909929138
Ti 19.0701680000 2.5408076835 4.7909929138
Ti 19.0701680000 0.8469358945 7.1864893706
Ti 17.6032320000 3.3877435779 7.1864893706
Ti 17.6032320000 0.0000000000 9.5819858275
Ti 19.0701680000 2.5408076835 9.5819858275
Ti 19.0701680000 0.8469358945 11.9774822844
Ti 17.6032320000 3.3877435779 11.9774822844
Ti 17.6032320000 0.0000000000 14.3729787413
Ti 19.0701680000 2.5408076835 14.3729787413
Ti 19.0701680000 0.8469358945 16.7684751982
Ti 17.6032320000 3.3877435779 16.7684751982
Ti 17.6032320000 0.0000000000 19.1639716550
Ti 19.0701680000 2.5408076835 19.1639716550
Ti 19.0701680000 0.8469358945 21.5594681119
Ti 17.6032320000 3.3877435779 21.5594681119
Ti 17.6032320000 0.0000000000 23.9549645688
Ti 19.0701680000 2.5408076835 23.9549645688
Ti 19.0701680000 0.8469358945 26.3504610257
Ti 17.6032320000 3.3877435779 26.3504610257
Ti 17.6032320000 0.0000000000 28.7459574826
Ti 19.0701680000 2.5408076835 28.7459574826
Ti 19.0701680000 0.8469358945 31.1414539394
Ti 17.6032320000 3.3877435779 31.1414539394
Ti 17.6032320000 0.0000000000 33.5369503963
Ti 19.0701680000 2.5408076835 33.5369503963
Ti 19.0701680000 0.8469358945 35.9324468532
Ti 17.6032320000 3.3877435779 35.9324468532
Ti 17.6032320000 5.0816153669 0.0000000000
Ti 19.0701680000 7.6224230504 0.0000000000
Ti 19.0701680000 5.9285512614 2.3954964569
Ti 17.6032320000 8.4693589448 2.3954964569
Ti 17.6032320000 5.0816153669 4.7909929138
Ti 19.0701680000 7.6224230504 4.7909929138
Ti 19.0701680000 5.9285512614 7.1864893706
Ti 17.6032320000 8.4693589448 7.1864893706
Ti 17.6032320000 5.0816153669 9.5819858275
Ti 19.0701680000 7.6224230504 9.5819858275
Ti 19.0701680000 5.9285512614 11.9774822844
Ti 17.6032320000 8.4693589448 11.9774822844
Ti 17.6032320000 5.0816153669 14.3729787413
Ti 19.0701680000 7.6224230504 14.3729787413
Ti 19.0701680000 5.9285512614 16.7684751982
Ti 17.6032320000 8.4693589448 16.7684751982
Ti 17.6032320000 5.0816153669 19.1639716550
Ti 19.0701680000 7.6224230504 19.1639716550
Ti 19.0701680000 5.9285512614 21.5594681119
Ti 17.6032320000 8.4693589448 21.5594681119
Ti 17.6032320000 5.0816153669 23.9549645688
Ti 19.0701680000 7.6224230504 23.9549645688
Ti 19.0701680000 5.9285512614 26.3504610257
Ti 17.6032320000 8.4693589448 26.3504610257
Ti 17.6032320000 5.0816153669 28.7459574826
Ti 19.0701680000 7.6224230504 28.7459574826
Ti 19.0701680000 5.9285512614 31.1414539394
Ti 17.6032320000 8.4693589448 31.1414539394
Ti 17.6032320000 5.0816153669 33.5369503963
Ti 19.0701680000 7.6224230504 33.5369503963
Ti 19.0701680000 5.9285512614 35.9324468532
Ti 17.6032320000 8.4693589448 35.9324468532
Ti 17.6032320000 10.1632307338 0.0000000000
Ti 19.0701680000 12.7040384173 0.0000000000
Ti 19.0701680000 11.0101666283 2.3954964569
Ti 17.6032320000 13.5509743117 2.3954964569
Ti 17.6032320000 10.1632307338 4.7909929138
Ti 19.0701680000 12.7040384173 4.7909929138
Ti 19.0701680000 11.0101666283 7.1864893706
Ti 17.6032320000 13.5509743117 7.1864893706
Ti 17.6032320000 10.1632307338 9.5819858275
Ti 19.0701680000 12.7040384173 9.5819858275
Ti 19.0701680000 11.0101666283 11.9774822844
Ti 17.6032320000 13.5509743117 11.9774822844
Ti 17.6032320000 10.1632307338 14.3729787413
Ti 19.0701680000 12.7040384173 14.3729787413
Ti 19.0701680000 11.0101666283 16.7684751982
Ti 17.6032320000 13.5509743117 16.7684751982
Ti 17.6032320000 10.1632307338 19.1639716550
Ti 19.0701680000 12.7040384173 19.1639716550
Ti 19.0701680000 11.0101666283 21.5594681119
Ti 17.6032320000 13.5509743117 21.5594681119
Ti 17.6032320000 10.1632307338 23.9549645688
Ti 19.0701680000 12.7040384173 23.9549645688
Ti 19.0701680000 11.0101666283 26.3504610257
Ti 17.6032320000 13.5509743117 26.3504610257
Ti 17.6032320000 10.1632307338 28.7459574826
Ti 19.0701680000 12.7040384173 28.7459574826
Ti 19.0701680000 11.0101666283 31.1414539394
Ti 17.6032320000 13.5509743117 31.1414539394
Ti 17.6032320000 10.1632307338 33.5369503963
Ti 19.0701680000 12.7040384173 33.5369503963
Ti 19.0701680000 11.0101666283 35.9324468532
Ti 17.6032320000 13.5509743117 35.9324468532
Ti 17.6032320000 15.2448461007 0.0000000000
Ti 19.0701680000 17.7856537842 0.0000000000
Ti 19.0701680000 16.0917819952 2.3954964569
Ti 17.6032320000 18.6325896786 2.3954964569
Ti 17.6032320000 15.2448461007 4.7909929138
Ti 19.0701680000 17.7856537842 4.7909929138
Ti 19.0701680000 16.0917819952 7.1864893706
Ti 17.6032320000 18.6325896786 7.1864893706
Ti 17.6032320000 15.2448461007 9.5819858275
Ti 19.0701680000 17.7856537842 9.5819858275
Ti 19.0701680000 16.0917819952 11.9774822844
Ti 17.6032320000 18.6325896786 11.9774822844
Ti 17.6032320000 15.2448461007 14.3729787413
Ti 19.0701680000 17.7856537842 14.3729787413
Ti 19.0701680000 16.0917819952 16.7684751982
Ti 17.6032320000 18.6325896786 16.7684751982
Ti 17.6032320000 15.2448461007 19.1639716550
Ti 19.0701680000 17.7856537842 19.1639716550
Ti 19.0701680000 16.0917819952 21.5594681119
Ti 17.6032320000 18.6325896786 21.5594681119
Ti 17.6032320000 15.2448461007 23.9549645688
Ti 19.0701680000 17.7856537842 23.9549645688
Ti 19.0701680000 16.0917819952 26.3504610257
Ti 17.6032320000 18.6325896786 26.3504610257
Ti 17.6032320000 15.2448461007 28.7459574826
Ti 19.0701680000 17.7856537842 28.7459574826
Ti 19.0701680000 16.0917819952 31.1414539394
Ti 17.6032320000 18.6325896786 31.1414539394
Ti 17.6032320000 15.2448461007 33.5369503963
Ti 19.0701680000 17.7856537842 33.5369503963
Ti 19.0701680000 16.0917819952 35.9324468532
Ti 17.6032320000 18.6325896786 35.9324468532
Ti 17.6032320000 20.3264614676 0.0000000000
Ti 19.0701680000 22.8672691511 0.0000000000
Ti 19.0701680000 21.1733973621 2.3954964569
Ti 17.6032320000 23.7142050456 2.3954964569
Ti 17.6032320000 20.3264614676 4.7909929138
Ti 19.0701680000 22.8672691511 4.7909929138
Ti 19.0701680000 21.1733973621 7.1864893706
Ti 17.6032320000 23.7142050456 7.1864893706
Ti 17.6032320000 20.3264614676 9.5819858275
Ti 19.0701680000 22.8672691511 9.5819858275
Ti 19.0701680000 21.1733973621 11.9774822844
Ti 17.6032320000 23.7142050456 11.9774822844
Ti 17.6032320000 20.3264614676 14.3729787413
Ti 19.0701680000 22.8672691511 14.3729787413
Ti 19.0701680000 21.1733973621 16.7684751982
Ti 17.6032320000 23.7142050456 16.7684751982
Ti 17.6032320000 20.3264614676 19.1639716550
Ti 19.0701680000 22.8672691511 19.1639716550
Ti 19.0701680000 21.1733973621 21.5594681119
Ti 17.6032320000 23.7142050456 21.5594681119
Ti 17.6032320000 20.3264614676 23.9549645688
Ti 19.0701680000 22.8672691511 23.9549645688
Ti 19.0701680000 21.1733973621 26.3504610257
Ti 17.6032320000 23.7142050456 26.3504610257
Ti 17.6032320000 20.3264614676 28.7459574826
Ti 19.0701680000 22.8672691511 28.7459574826
Ti 19.0701680000 21.1733973621 31.1414539394
Ti 17.6032320000 23.7142050456 31.1414539394
Ti 17.6032320000 20.3264614676 33.5369503963
Ti 19.0701680000 22.8672691511 33.5369503963
Ti 19.0701680000 21.1733973621 35.9324468532
Ti 17.6032320000 23.7142050456 35.9324468532
Ti 17.6032320000 25.4080768345 0.0000000000
Ti 19.0701680000 27.9488845180 0.0000000000
Ti 19.0701680000 26.2550127290 2.3954964569
Ti 17.6032320000 28.7958204125 2.3954964569
Ti 17.6032320000 25.4080768345 4.7909929138
Ti 19.0701680000 27.9488845180 4.7909929138
Ti 19.0701680000 26.2550127290 7.1864893706
Ti 17.6032320000 28.7958204125 7.1864893706
Ti 17.6032320000 25.4080768345 9.5819858275
Ti 19.0701680000 27.9488845180 9.5819858275
Ti 19.0701680000 26.2550127290 11.9774822844
Ti 17.6032320000 28.7958204125 11.9774822844
Ti 17.6032320000 25.4080768345 14.3729787413
Ti 19.0701680000 27.9488845180 14.3729787413
Ti 19.0701680000 26.2550127290 16.7684751982
Ti 17.6032320000 28.7958204125 16.7684751982
Ti 17.6032320000 25.4080768345 19.1639716550
Ti 19.0701680000 27.9488845180 19.1639716550
Ti 19.0701680000 26.2550127290 21.5594681119
Ti 17.6032320000 28.7958204125 21.5594681119
Ti 17.6032320000 25.4080768345 23.9549645688
Ti 19.0701680000 27.9488845180 23.9549645688
Ti 19.0701680000 26.2550127290 26.3504610257
Ti 17.6032320000 28.7958204125 26.3504610257
Ti 17.6032320000 25.4080768345 28.7459574826
Ti 19.0701680000 27.9488845180 28.7459574826
Ti 19.0701680000 26.2550127290 31.1414539394
Ti 17.6032320000 28.7958204125 31.1414539394
Ti 17.6032320000 25.4080768345 33.5369503963
Ti 19.0701680000 27.9488845180 33.5369503963
Ti 19.0701680000 26.2550127290 35.9324468532
Ti 17.6032320000 28.7958204125 35.9324468532
Ti 17.6032320000 30.4896922014 0.0000000000
Ti 19.0701680000 33.0304998849 0.0000000000
Ti 19.0701680000 31.3366280959 2.3954964569
Ti 17.6032320000 33.8774357794 2.3954964569
Ti 17.6032320000 30.4896922014 4.7909929138
Ti 19.0701680000 33.0304998849 4.7909929138
Ti 19.0701680000 31.3366280959 7.1864893706
Ti 17.6032320000 33.8774357794 7.1864893706
Ti 17.6032320000 30.4896922014 9.5819858275
Ti 19.0701680000 33.0304998849 9.5819858275
Ti 19.0701680000 31.3366280959 11.9774822844
Ti 17.6032320000 33.8774357794 11.9774822844
Ti 17.6032320000 30.4896922014 14.3729787413
Ti 19.0701680000 33.0304998849 14.3729787413
Ti 19.0701680000 31.3366280959 16.7684751982
Ti 17.6032320000 33.8774357794 16.7684751982
Ti 17.6032320000 30.4896922014 19.1639716550
Ti 19.0701680000 33.0304998849 19.1639716550
Ti 19.0701680000 31.3366280959 21.5594681119
Ti 17.6032320000 33.8774357794 21.5594681119
Ti 17.6032320000 30.4896922014 23.9549645688
Ti 19.0701680000 33.0304998849 23.9549645688
Ti 19.0701680000 31.3366280959 26.3504610257
Ti 17.6032320000 33.8774357794 26.3504610257
Ti 17.6032320000 30.4896922014 28.7459574826
Ti 19.0701680000 33.0304998849 28.7459574826
Ti 19.0701680000 31.3366280959 31.1414539394
Ti 17.6032320000 33.8774357794 31.1414539394
Ti 17.6032320000 30.4896922014 33.5369503963
Ti 19.0701680000 33.0304998849 33.5369503963
Ti 19.0701680000 31.3366280959 35.9324468532
Ti 17.6032320000 33.8774357794 35.9324468532
Ti 17.6032320000 35.5713075683 0.0000000000
Ti 19.0701680000 38.1121152518 0.0000000000
Ti 19.0701680000 36.4182434628 2.3954964569
Ti 17.6032320000 38.9590511463 2.3954964569
Ti 17.6032320000 35.5713075683 4.7909929138
Ti 19.0701680000 38.1121152518 4.7909929138
Ti 19.0701680000 36.4182434628 7.1864893706
Ti 17.6032320000 38.9590511463 7.1864893706
Ti 17.6032320000 35.5713075683 9.5819858275
Ti 19.0701680000 38.1121152518 9.5819858275
Ti 19.0701680000 36.4182434628 11.9774822844
Ti 17.6032320000 38.9590511463 11.9774822844
Ti 17.6032320000 35.5713075683 14.3729787413
Ti 19.0701680000 38.1121152518 14.3729787413
Ti 19.0701680000 36.4182434628 16.7684751982
Ti 17.6032320000 38.9590511463 16.7684751982
Ti 17.6032320000 35.5713075683 19.1639716550
Ti 19.0701680000 38.1121152518 19.1639716550
Ti 19.0701680000 36.4182434628 21.5594681119
Ti 17.6032320000 38.9590511463 21.5594681119
Ti 17.6032320000 35.5713075683 23.9549645688
Ti 19.0701680000 38.1121152518 23.9549645688
Ti 19.0701680000 36.4182434628 26.3504610257
Ti 17.6032320000 38.9590511463 26.3504610257
Ti 17.6032320000 35.5713075683 28.7459574826
Ti 19.0701680000 38.1121152518 28.7459574826
Ti 19.0701680000 36.4182434628 31.1414539394
Ti 17.6032320000 38.9590511463 31.1414539394
Ti 17.6032320000 35.5713075683 33.5369503963
Ti 19.0701680000 38.1121152518 33.5369503963
Ti 19.0701680000 36.4182434628 35.9324468532
Ti 17.6032320000 38.9590511463 35.9324468532
Ti 20.5371040000 0.0000000000 0.0000000000
Ti 22.0040400000 2.5408076835 0.0000000000
Ti 22.0040400000 0.8469358945 2.3954964569
Ti 20.5371040000 3.3877435779 2.3954964569
Ti 20.5371040000 0.0000000000 4.7909929138
Ti 22.0040400000 2.5408076835 4.7909929138
Ti 22.0040400000 0.8469358945 7.1864893706
Ti 20.5371040000 3.3877435779 7.1864893706
Ti 20.5371040000 0.0000000000 9.5819858275
Ti 22.0040400000 2.5408076835 9.5819858275
Ti 22.0040400000 0.8469358945 11.9774822844
Ti 20.5371040000 3.3877435779 11.9774822844
Ti 20.5371040000 0.0000000000 14.3729787413
Ti 22.0040400000 2.5408076835 14.3729787413
Ti 22.0040400000 0.8469358945 16.7684751982
Ti 20.5371040000 3.3877435779 16.7684751982
Ti 20.5371040000 0.0000000000 19.1639716550
Ti 22.0040400000 2.5408076835 19.1639716550
Ti 22.0040400000 0.8469358945 21.5594681119
Ti 20.5371040000 3.3877435779 21.5594681119
Ti 20.5371040000 0.0000000000 23.9549645688
Ti 22.0040400000 2.5408076835 23.9549645688
Ti 22.0040400000 0.8469358945 26.3504610257
Ti 20.5371040000 3.3877435779 26.3504610257
Ti 20.5371040000 0.0000000000 28.7459574826
Ti 22.0040400000 2.5408076835 28.7459574826
Ti 22.0040400000 0.8469358945 31.1414539394
Ti 20.5371040000 3.3877435779 31.1414539394
Ti 20.5371040000 0.0000000000 33.5369503963
Ti 22.0040400000 2.5408076835 33.5369503963
Ti 22.0040400000 0.8469358945 35.9324468532
Ti 20.5371040000 3.3877435779 35.9324468532
Ti 20.5371040000 5.0816153669 0.0000000000
Ti 22.0040400000 7.6224230504 0.0000000000
Ti 22.0040400000 5.9285512614 2.3954964569
Ti 20.5371040000 8.4693589448 2.3954964569
Ti 20.5371040000 5.0816153669 4.7909929138
Ti 22.0040400000 7.6224230504 4.7909929138
Ti 22.0040400000 5.9285512614 7.1864893706
Ti 20.5371040000 8.4693589448 7.1864893706
Ti 20.5371040000 5.0816153669 9.5819858275
Ti 22.0040400000 7.6224230504 9.5819858275
Ti 22.0040400000 5.9285512614 11.9774822844
Ti 20.5371040000 8.4693589448 11.9774822844
Ti 20.5371040000 5.0816153669 14.3729787413
Ti 22.0040400000 7.6224230504 14.3729787413
Ti 22.0040400000 5.9285512614 16.7684751982
Ti 20.5371040000 8.4693589448 16.7684751982
Ti 20.5371040000 5.0816153669 19.1639716550
Ti 22.0040400000 7.6224230504 19.1639716550
Ti 22.0040400000 5.9285512614 21.5594681119
Ti 20.5371040000 8.4693589448 21.5594681119
Ti 20.5371040000 5.0816153669 23.9549645688
Ti 22.0040400000 7.6224230504 23.9549645688
Ti 22.0040400000 5.9285512614 26.3504610257
Ti 20.5371040000 8.4693589448 26.3504610257
Ti 20.5371040000 5.0816153669 28.7459574826
Ti 22.0040400000 7.6224230504 28.7459574826
Ti 22.0040400000 5.9285512614 31.1414539394
Ti 20.5371040000 8.4693589448 31.1414539394
Ti 20.5371040000 5.0816153669 33.5369503963
Ti 22.0040400000 7.6224230504 33.5369503963
Ti 22.0040400000 5.9285512614 35.9324468532
Ti 20.5371040000 8.4693589448 35.9324468532
Ti 20.5371040000 10.1632307338 0.0000000000
Ti 22.0040400000 12.7040384173 0.0000000000
Ti 22.0040400000 11.0101666283 2.3954964569
Ti 20.5371040000 13.5509743117 2.3954964569
Ti 20.5371040000 10.1632307338 4.7909929138
Ti 22.0040400000 12.7040384173 4.7909929138
Ti 22.0040400000 11.0101666283 7.1864893706
Ti 20.5371040000 13.5509743117 7.1864893706
Ti 20.5371040000 10.1632307338 9.5819858275
Ti 22.0040400000 12.7040384173 9.5819858275
Ti 22.0040400000 11.0101666283 11.9774822844
Ti 20.5371040000 13.5509743117 11.9774822844
Ti 20.5371040000 10.1632307338 14.3729787413
Ti 22.0040400000 12.7040384173 14.3729787413
Ti 22.0040400000 11.0101666283 16.7684751982
Ti 20.5371040000 13.5509743117 16.7684751982
Ti 20.5371040000 10.1632307338 19.1639716550
Ti 22.0040400000 12.7040384173 19.1639716550
Ti 22.0040400000 11.0101666283 21.5594681119
Ti 20.5371040000 13.5509743117 21.5594681119
Ti 20.5371040000 10.1632307338 23.9549645688
Ti 22.0040400000 12.7040384173 23.9549645688
Ti 22.0040400000 11.0101666283 26.3504610257
Ti 20.5371040000 13.5509743117 26.3504610257
Ti 20.5371040000 10.1632307338 28.7459574826
Ti 22.0040400000 12.7040384173 28.7459574826
Ti 22.0040400000 11.0101666283 31.1414539394
Ti 20.5371040000 13.5509743117 31.1414539394
Ti 20.5371040000 10.1632307338 33.5369503963
Ti 22.0040400000 12.7040384173 33.5369503963
Ti 22.0040400000 11.0101666283 35.9324468532
Ti 20.5371040000 13.5509743117 35.9324468532
Ti 20.5371040000 15.2448461007 0.0000000000
Ti 22.0040400000 17.7856537842 0.0000000000
Ti 22.0040400000 16.0917819952 2.3954964569
Ti 20.5371040000 18.6325896786 2.3954964569
Ti 20.5371040000 15.2448461007 4.7909929138
Ti 22.0040400000 17.7856537842 4.7909929138
Ti 22.0040400000 16.0917819952 7.1864893706
Ti 20.5371040000 18.6325896786 7.1864893706
Ti 20.5371040000 15.2448461007 9.5819858275
Ti 22.0040400000 17.7856537842 9.5819858275
Ti 22.0040400000 16.0917819952 11.9774822844
Ti 20.5371040000 18.6325896786 11.9774822844
Ti 20.5371040000 15.2448461007 14.3729787413
Ti 22.0040400000 17.7856537842 14.3729787413
Ti 22.0040400000 16.0917819952 16.7684751982
Ti 20.5371040000 18.6325896786 16.7684751982
Ti 20.5371040000 15.2448461007 19.1639716550
Ti 22.0040400000 17.7856537842 19.1639716550
Ti 22.0040400000 16.0917819952 21.5594681119
Ti 20.5371040000 18.6325896786 21.5594681119
Ti 20.5371040000 15.2448461007 23.9549645688
Ti 22.0040400000 17.7856537842 23.9549645688
Ti 22.0040400000 16.0917819952 26.3504610257
Ti 20.5371040000 18.6325896786 26.3504610257
Ti 20.5371040000 15.2448461007 28.7459574826
Ti 22.0040400000 17.7856537842 28.7459574826
Ti 22.0040400000 16.0917819952 31.1414539394
Ti 20.5371040000 18.6325896786 31.1414539394
Ti 20.5371040000 15.2448461007 33.5369503963
Ti 22.0040400000 17.7856537842 33.5369503963
Ti 22.0040400000 16.0917819952 35.9324468532
Ti 20.5371040000 18.6325896786 35.9324468532
Ti 20.5371040000 20.3264614676 0.0000000000
Ti 22.0040400000 22.8672691511 0.0000000000
Ti 22.0040400000 21.1733973621 2.3954964569
Ti 20.5371040000 23.7142050456 2.3954964569
Ti 20.5371040000 20.3264614676 4.7909929138
Ti 22.0040400000 22.8672691511 4.7909929138
Ti 22.0040400000 21.1733973621 7.1864893706
Ti 20.5371040000 23.7142050456 7.1864893706
Ti 20.5371040000 20.3264614676 9.5819858275
Ti 22.0040400000 22.8672691511 9.5819858275
Ti 22.0040400000 21.1733973621 11.9774822844
Ti 20.5371040000 23.7142050456 11.9774822844
Ti 20.5371040000 20.3264614676 14.3729787413
Ti 22.0040400000 22.8672691511 14.3729787413
Ti 22.0040400000 21.1733973621 16.7684751982
Ti 20.5371040000 23.7142050456 16.7684751982
Ti 20.5371040000 20.3264614676 19.1639716550
Ti 22.0040400000 22.8672691511 19.1639716550
Ti 22.0040400000 21.1733973621 21.5594681119
Ti 20.5371040000 23.7142050456 21.5594681119
Ti 20.5371040000 20.3264614676 23.9549645688
Ti 22.0040400000 22.8672691511 23.9549645688
Ti 22.0040400000 21.1733973621 26.3504610257
Ti 20.5371040000 23.7142050456 26.3504610257
Ti 20.5371040000 20.3264614676 28.7459574826
Ti 22.0040400000 22.8672691511 28.7459574826
Ti 22.0040400000 21.1733973621 31.1414539394
Ti 20.5371040000 23.7142050456 31.1414539394
Ti 20.5371040000 20.3264614676 33.5369503963
Ti 22.0040400000 22.8672691511 33.5369503963
Ti 22.0040400000 21.1733973621 35.9324468532
Ti 20.5371040000 23.7142050456 35.9324468532
Ti 20.5371040000 25.4080768345 0.0000000000
Ti 22.0040400000 27.9488845180 0.0000000000
Ti 22.0040400000 26.2550127290 2.3954964569
Ti 20.5371040000 28.7958204125 2.3954964569
Ti 20.5371040000 25.4080768345 4.7909929138
Ti 22.0040400000 27.9488845180 4.7909929138
Ti 22.0040400000 26.2550127290 7.1864893706
Ti 20.5371040000 28.7958204125 7.1864893706
Ti 20.5371040000 25.4080768345 9.5819858275
Ti 22.0040400000 27.9488845180 9.5819858275
Ti 22.0040400000 26.2550127290 11.9774822844
Ti 20.5371040000 28.7958204125 11.9774822844
Ti 20.5371040000 25.4080768345 14.3729787413
Ti 22.0040400000 27.9488845180 14.3729787413
Ti 22.0040400000 26.2550127290 16.7684751982
Ti 20.5371040000 28.7958204125 16.7684751982
Ti 20.5371040000 25.4080768345 19.1639716550
Ti 22.0040400000 27.9488845180 19.1639716550
Ti 22.0040400000 26.2550127290 21.5594681119
Ti 20.5371040000 28.7958204125 21.5594681119
Ti 20.5371040000 25.4080768345 23.9549645688
Ti 22.0040400000 27.9488845180 23.9549645688
Ti 22.0040400000 26.2550127290 26.3504610257
Ti 20.5371040000 28.7958204125 26.3504610257
Ti 20.5371040000 25.4080768345 28.7459574826
Ti 22.0040400000 27.9488845180 28.7459574826
Ti 22.0040400000 26.2550127290 31.1414539394
Ti 20.5371040000 28.7958204125 31.1414539394
Ti 20.5371040000 25.4080768345 33.5369503963
Ti 22.0040400000 27.9488845180 33.5369503963
Ti 22.0040400000 26.2550127290 35.9324468532
Ti 20.5371040000 28.7958204125 35.9324468532
Ti 20.5371040000 30.4896922014 0.0000000000
Ti 22.0040400000 33.0304998849 0.0000000000
Ti 22.0040400000 31.3366280959 2.3954964569
Ti 20.5371040000 33.8774357794 2.3954964569
Ti 20.5371040000 30.4896922014 4.7909929138
Ti 22.0040400000 33.0304998849 4.7909929138
Ti 22.0040400000 31.3366280959 7.1864893706
Ti 20.5371040000 33.8774357794 7.1864893706
Ti 20.5371040000 30.4896922014 9.5819858275
Ti 22.0040400000 33.0304998849 9.5819858275
Ti 22.0040400000 31.3366280959 11.9774822844
Ti 20.5371040000 33.8774357794 11.9774822844
Ti 20.5371040000 30.4896922014 14.3729787413
Ti 22.0040400000 33.0304998849 14.3729787413
Ti 22.0040400000 31.3366280959 16.7684751982
Ti 20.5371040000 33.8774357794 16.7684751982
Ti 20.5371040000 30.4896922014 19.1639716550
Ti 22.0040400000 33.0304998849 19.1639716550
Ti 22.0040400000 31.3366280959 21.5594681119
Ti 20.5371040000 33.8774357794 21.5594681119
Ti 20.5371040000 30.4896922014 23.9549645688
Ti 22.0040400000 33.0304998849 23.9549645688
Ti 22.0040400000 31.3366280959 26.3504610257
Ti 20.5371040000 33.8774357794 26.3504610257
Ti 20.5371040000 30.4896922014 28.7459574826
Ti 22.0040400000 33.0304998849 28.7459574826
Ti 22.0040400000 31.3366280959 31.1414539394
Ti 20.5371040000 33.8774357794 31.1414539394
Ti 20.5371040000 30.4896922014 33.5369503963
Ti 22.0040400000 33.0304998849 33.5369503963
Ti 22.0040400000 31.3366280959 35.9324468532
Ti 20.5371040000 33.8774357794 35.9324468532
Ti 20.5371040000 35.5713075683 0.0000000000
Ti 22.0040400000 38.1121152518 0.0000000000
Ti 22.0040400000 36.4182434628 2.3954964569
Ti 20.5371040000 38.9590511463 2.3954964569
Ti 20.5371040000 35.5713075683 4.7909929138
Ti 22.0040400000 38.1121152518 4.7909929138
Ti 22.0040400000 36.4182434628 7.1864893706
Ti 20.5371040000 38.9590511463 7.1864893706
Ti 20.5371040000 35.5713075683 9.5819858275
Ti 22.0040400000 38.1121152518 9.5819858275
Ti 22.0040400000 36.4182434628 11.9774822844
Ti 20.5371040000 38.9590511463 11.9774822844
Ti 20.5371040000 35.5713075683 14.3729787413
Ti 22.0040400000 38.1121152518 14.3729787413
Ti 22.0040400000 36.4182434628 16.7684751982
Ti 20.5371040000 38.9590511463 16.7684751982
Ti 20.5371040000 35.5713075683 19.1639716550
Ti 22.0040400000 38.1121152518 19.1639716550
Ti 22.0040400000 36.4182434628 21.5594681119
Ti 20.5371040000 38.9590511463 21.5594681119
Ti 20.5371040000 35.5713075683 23.9549645688
Ti 22.0040400000 38.1121152518 23.9549645688
Ti 22.0040400000 36.4182434628 26.3504610257
Ti 20.5371040000 38.9590511463 26.3504610257
Ti 20.5371040000 35.5713075683 28.7459574826
Ti 22.0040400000 38.1121152518 28.7459574826
Ti 22.0040400000 36.4182434628 31.1414539394
Ti 20.5371040000 38.9590511463 31.1414539394
Ti 20.5371040000 35.5713075683 33.5369503963
Ti 22.0040400000 38.1121152518 33.5369503963
Ti 22.0040400000 36.4182434628 35.9324468532
Ti 20.5371040000 38.9590511463 35.9324468532
