8
Lattice="5.5000000000 0.0000000000 0.0000000000 0.0000000000 5.5000000000 0.0000000000 0.0000000000 0.0000000000 5.5000000000" Properties=species:S:1:pos:R:3 pbc="T T T" case=t89_sige_zincblende
Si 0.0000000000 0.0000000000 0.0000000000
Si 0.0000000000 2.7500000000 2.7500000000
Si 2.7500000000 0.0000000000 2.7500000000
Si 2.7500000000 2.7500000000 0.0000000000
Ge 1.3750000000 1.3750000000 1.3750000000
Ge 1.3750000000 4.1250000000 4.1250000000
Ge 4.1250000000 1.3750000000 4.1250000000
Ge 4.1250000000 4.1250000000 1.3750000000
