2048
Lattice="28.1569467720 0 0 0 28.1569467720 0 0 0 28.1569467720" Properties=species:S:1:pos:R:3 pbc="T T T" case=zhou_ni_fcc
Ni 0.0000000000 0.0000000000 0.0000000000
Ni 0.0000000000 1.7598091733 1.7598091733
Ni 1.7598091733 0.0000000000 1.7598091733
Ni 1.7598091733 1.7598091733 0.0000000000
Ni 0.0000000000 0.0000000000 3.5196183465
Ni 0.0000000000 1.7598091733 5.2794275198
Ni 1.7598091733 0.0000000000 5.2794275198
Ni 1.7598091733 1.7598091733 3.5196183465
Ni 0.0000000000 0.0000000000 7.0392366930
Ni 0.0000000000 1.7598091733 8.7990458663
Ni 1.7598091733 0.0000000000 8.7990458663
Ni 1.7598091733 1.7598091733 7.0392366930
Ni 0.0000000000 0.0000000000 10.5588550395
Ni 0.0000000000 1.7598091733 12.3186642128
Ni 1.7598091733 0.0000000000 12.3186642128
Ni 1.7598091733 1.7598091733 10.5588550395
Ni 0.0000000000 0.0000000000 14.0784733860
Ni 0.0000000000 1.7598091733 15.8382825593
Ni 1.7598091733 0.0000000000 15.8382825593
Ni 1.7598091733 1.7598091733 14.0784733860
Ni 0.0000000000 0.0000000000 17.5980917325
Ni 0.0000000000 1.7598091733 19.3579009058
Ni 1.7598091733 0.0000000000 19.3579009058
Ni 1.7598091733 1.7598091733 17.5980917325
Ni 0.0000000000 0.0000000000 21.1177100790
Ni 0.0000000000 1.7598091733 22.8775192523
Ni 1.7598091733 0.0000000000 22.8775192523
Ni 1.7598091733 1.7598091733 21.1177100790
Ni 0.0000000000 0.0000000000 24.6373284255
Ni 0.0000000000 1.7598091733 26.3971375988
Ni 1.7598091733 0.0000000000 26.3971375988
Ni 1.7598091733 1.7598091733 24.6373284255
Ni 0.0000000000 3.5196183465 0.0000000000
Ni 0.0000000000 5.2794275198 1.7598091733
Ni 1.7598091733 3.5196183465 1.7598091733
Ni 1.7598091733 5.2794275198 0.0000000000
Ni 0.0000000000 3.5196183465 3.5196183465
Ni 0.0000000000 5.2794275198 5.2794275198
Ni 1.7598091733 3.5196183465 5.2794275198
Ni 1.7598091733 5.2794275198 3.5196183465
Ni 0.0000000000 3.5196183465 7.0392366930
Ni 0.0000000000 5.2794275198 8.7990458663
Ni 1.7598091733 3.5196183465 8.7990458663
Ni 1.7598091733 5.2794275198 7.0392366930
Ni 0.0000000000 3.5196183465 10.5588550395
Ni 0.0000000000 5.2794275198 12.3186642128
Ni 1.7598091733 3.5196183465 12.3186642128
Ni 1.7598091733 5.2794275198 10.5588550395
Ni 0.0000000000 3.5196183465 14.0784733860
Ni 0.0000000000 5.2794275198 15.8382825593
Ni 1.7598091733 3.5196183465 15.8382825593
Ni 1.7598091733 5.2794275198 14.0784733860
Ni 0.0000000000 3.5196183465 17.5980917325
Ni 0.0000000000 5.2794275198 19.3579009058
Ni 1.7598091733 3.5196183465 19.3579009058
Ni 1.7598091733 5.2794275198 17.5980917325
Ni 0.0000000000 3.5196183465 21.1177100790
Ni 0.0000000000 5.2794275198 22.8775192523
Ni 1.7598091733 3.5196183465 22.8775192523
Ni 1.7598091733 5.2794275198 21.1177100790
Ni 0.0000000000 3.5196183465 24.6373284255
Ni 0.0000000000 5.2794275198 26.3971375988
Ni 1.7598091733 3.5196183465 26.3971375988
Ni 1.7598091733 5.2794275198 24.6373284255
Ni 0.0000000000 7.0392366930 0.0000000000
Ni 0.0000000000 8.7990458663 1.7598091733
Ni 1.7598091733 7.0392366930 1.7598091733
Ni 1.7598091733 8.7990458663 0.0000000000
Ni 0.0000000000 7.0392366930 3.5196183465
Ni 0.0000000000 8.7990458663 5.2794275198
Ni 1.7598091733 7.0392366930 5.2794275198
Ni 1.7598091733 8.7990458663 3.5196183465
Ni 0.0000000000 7.0392366930 7.0392366930
Ni 0.0000000000 8.7990458663 8.7990458663
Ni 1.7598091733 7.0392366930 8.7990458663
Ni 1.7598091733 8.7990458663 7.0392366930
Ni 0.0000000000 7.0392366930 10.5588550395
Ni 0.0000000000 8.7990458663 12.3186642128
Ni 1.7598091733 7.0392366930 12.3186642128
Ni 1.7598091733 8.7990458663 10.5588550395
Ni 0.0000000000 7.0392366930 14.0784733860
Ni 0.0000000000 8.7990458663 15.8382825593
Ni 1.7598091733 7.0392366930 15.8382825593
Ni 1.7598091733 8.7990458663 14.0784733860
Ni 0.0000000000 7.0392366930 17.5980917325
Ni 0.0000000000 8.7990458663 19.3579009058
Ni 1.7598091733 7.0392366930 19.3579009058
Ni 1.7598091733 8.7990458663 17.5980917325
Ni 0.0000000000 7.0392366930 21.1177100790
Ni 0.0000000000 8.7990458663 22.8775192523
Ni 1.7598091733 7.0392366930 22.8775192523
Ni 1.7598091733 8.7990458663 21.1177100790
Ni 0.0000000000 7.0392366930 24.6373284255
Ni 0.0000000000 8.7990458663 26.3971375988
Ni 1.7598091733 7.0392366930 26.3971375988
Ni 1.7598091733 8.7990458663 24.6373284255
Ni 0.0000000000 10.5588550395 0.0000000000
Ni 0.0000000000 12.3186642128 1.7598091733
Ni 1.7598091733 10.5588550395 1.7598091733
Ni 1.7598091733 12.3186642128 0.0000000000
Ni 0.0000000000 10.5588550395 3.5196183465
Ni 0.0000000000 12.3186642128 5.2794275198
Ni 1.7598091733 10.5588550395 5.2794275198
Ni 1.7598091733 12.3186642128 3.5196183465
Ni 0.0000000000 10.5588550395 7.0392366930
Ni 0.0000000000 12.3186642128 8.7990458663
Ni 1.7598091733 10.5588550395 8.7990458663
Ni 1.7598091733 12.3186642128 7.0392366930
Ni 0.0000000000 10.5588550395 10.5588550395
Ni 0.0000000000 12.3186642128 12.3186642128
Ni 1.7598091733 10.5588550395 12.3186642128
Ni 1.7598091733 12.3186642128 10.5588550395
Ni 0.0000000000 10.5588550395 14.0784733860
Ni 0.0000000000 12.3186642128 15.8382825593
Ni 1.7598091733 10.5588550395 15.8382825593
Ni 1.7598091733 12.3186642128 14.0784733860
Ni 0.0000000000 10.5588550395 17.5980917325
Ni 0.0000000000 12.3186642128 19.3579009058
Ni 1.7598091733 10.5588550395 19.3579009058
Ni 1.7598091733 12.3186642128 17.5980917325
Ni 0.0000000000 10.5588550395 21.1177100790
Ni 0.0000000000 12.3186642128 22.8775192523
Ni 1.7598091733 10.5588550395 22.8775192523
Ni 1.7598091733 12.3186642128 21.1177100790
Ni 0.0000000000 10.5588550395 24.6373284255
Ni 0.0000000000 12.3186642128 26.3971375988
Ni 1.7598091733 10.5588550395 26.3971375988
Ni 1.7598091733 12.3186642128 24.6373284255
Ni 0.0000000000 14.0784733860 0.0000000000
Ni 0.0000000000 15.8382825593 1.7598091733
Ni 1.7598091733 14.0784733860 1.7598091733
Ni 1.7598091733 15.8382825593 0.0000000000
Ni 0.0000000000 14.0784733860 3.5196183465
Ni 0.0000000000 15.8382825593 5.2794275198
Ni 1.7598091733 14.0784733860 5.2794275198
Ni 1.7598091733 15.8382825593 3.5196183465
Ni 0.0000000000 14.0784733860 7.0392366930
Ni 0.0000000000 15.8382825593 8.7990458663
Ni 1.7598091733 14.0784733860 8.7990458663
Ni 1.7598091733 15.8382825593 7.0392366930
Ni 0.0000000000 14.0784733860 10.5588550395
Ni 0.0000000000 15.8382825593 12.3186642128
Ni 1.7598091733 14.0784733860 12.3186642128
Ni 1.7598091733 15.8382825593 10.5588550395
Ni 0.0000000000 14.0784733860 14.0784733860
Ni 0.0000000000 15.8382825593 15.8382825593
Ni 1.7598091733 14.0784733860 15.8382825593
Ni 1.7598091733 15.8382825593 14.0784733860
Ni 0.0000000000 14.0784733860 17.5980917325
Ni 0.0000000000 15.8382825593 19.3579009058
Ni 1.7598091733 14.0784733860 19.3579009058
Ni 1.7598091733 15.8382825593 17.5980917325
Ni 0.0000000000 14.0784733860 21.1177100790
Ni 0.0000000000 15.8382825593 22.8775192523
Ni 1.7598091733 14.0784733860 22.8775192523
Ni 1.7598091733 15.8382825593 21.1177100790
Ni 0.0000000000 14.0784733860 24.6373284255
Ni 0.0000000000 15.8382825593 26.3971375988
Ni 1.7598091733 14.0784733860 26.3971375988
Ni 1.7598091733 15.8382825593 24.6373284255
Ni 0.0000000000 17.5980917325 0.0000000000
Ni 0.0000000000 19.3579009058 1.7598091733
Ni 1.7598091733 17.5980917325 1.7598091733
Ni 1.7598091733 19.3579009058 0.0000000000
Ni 0.0000000000 17.5980917325 3.5196183465
Ni 0.0000000000 19.3579009058 5.2794275198
Ni 1.7598091733 17.5980917325 5.2794275198
Ni 1.7598091733 19.3579009058 3.5196183465
Ni 0.0000000000 17.5980917325 7.0392366930
Ni 0.0000000000 19.3579009058 8.7990458663
Ni 1.7598091733 17.5980917325 8.7990458663
Ni 1.7598091733 19.3579009058 7.0392366930
Ni 0.0000000000 17.5980917325 10.5588550395
Ni 0.0000000000 19.3579009058 12.3186642128
Ni 1.7598091733 17.5980917325 12.3186642128
Ni 1.7598091733 19.3579009058 10.5588550395
Ni 0.0000000000 17.5980917325 14.0784733860
Ni 0.0000000000 19.3579009058 15.8382825593
Ni 1.7598091733 17.5980917325 15.8382825593
Ni 1.7598091733 19.3579009058 14.0784733860
Ni 0.0000000000 17.5980917325 17.5980917325
Ni 0.0000000000 19.3579009058 19.3579009058
Ni 1.7598091733 17.5980917325 19.3579009058
Ni 1.7598091733 19.3579009058 17.5980917325
Ni 0.0000000000 17.5980917325 21.1177100790
Ni 0.0000000000 19.3579009058 22.8775192523
Ni 1.7598091733 17.5980917325 22.8775192523
Ni 1.7598091733 19.3579009058 21.1177100790
Ni 0.0000000000 17.5980917325 24.6373284255
Ni 0.0000000000 19.3579009058 26.3971375988
Ni 1.7598091733 17.5980917325 26.3971375988
Ni 1.7598091733 19.3579009058 24.6373284255
Ni 0.0000000000 21.1177100790 0.0000000000
Ni 0.0000000000 22.8775192523 1.7598091733
Ni 1.7598091733 21.1177100790 1.7598091733
Ni 1.7598091733 22.8775192523 0.0000000000
Ni 0.0000000000 21.1177100790 3.5196183465
Ni 0.0000000000 22.8775192523 5.2794275198
Ni 1.7598091733 21.1177100790 5.2794275198
Ni 1.7598091733 22.8775192523 3.5196183465
Ni 0.0000000000 21.1177100790 7.0392366930
Ni 0.0000000000 22.8775192523 8.7990458663
Ni 1.7598091733 21.1177100790 8.7990458663
Ni 1.7598091733 22.8775192523 7.0392366930
Ni 0.0000000000 21.1177100790 10.5588550395
Ni 0.0000000000 22.8775192523 12.3186642128
Ni 1.7598091733 21.1177100790 12.3186642128
Ni 1.7598091733 22.8775192523 10.5588550395
Ni 0.0000000000 21.1177100790 14.0784733860
Ni 0.0000000000 22.8775192523 15.8382825593
Ni 1.7598091733 21.1177100790 15.8382825593
Ni 1.7598091733 22.8775192523 14.0784733860
Ni 0.0000000000 21.1177100790 17.5980917325
Ni 0.0000000000 22.8775192523 19.3579009058
Ni 1.7598091733 21.1177100790 19.3579009058
Ni 1.7598091733 22.8775192523 17.5980917325
Ni 0.0000000000 21.1177100790 21.1177100790
Ni 0.0000000000 22.8775192523 22.8775192523
Ni 1.7598091733 21.1177100790 22.8775192523
Ni 1.7598091733 22.8775192523 21.1177100790
Ni 0.0000000000 21.1177100790 24.6373284255
Ni 0.0000000000 22.8775192523 26.3971375988
Ni 1.7598091733 21.1177100790 26.3971375988
Ni 1.7598091733 22.8775192523 24.6373284255
Ni 0.0000000000 24.6373284255 0.0000000000
Ni 0.0000000000 26.3971375988 1.7598091733
Ni 1.7598091733 24.6373284255 1.7598091733
Ni 1.7598091733 26.3971375988 0.0000000000
Ni 0.0000000000 24.6373284255 3.5196183465
Ni 0.0000000000 26.3971375988 5.2794275198
Ni 1.7598091733 24.6373284255 5.2794275198
Ni 1.7598091733 26.3971375988 3.5196183465
Ni 0.0000000000 24.6373284255 7.0392366930
Ni 0.0000000000 26.3971375988 8.7990458663
Ni 1.7598091733 24.6373284255 8.7990458663
Ni 1.7598091733 26.3971375988 7.0392366930
Ni 0.0000000000 24.6373284255 10.5588550395
Ni 0.0000000000 26.3971375988 12.3186642128
Ni 1.7598091733 24.6373284255 12.3186642128
Ni 1.7598091733 26.3971375988 10.5588550395
Ni 0.0000000000 24.6373284255 14.0784733860
Ni 0.0000000000 26.3971375988 15.8382825593
Ni 1.7598091733 24.6373284255 15.8382825593
Ni 1.7598091733 26.3971375988 14.0784733860
Ni 0.0000000000 24.6373284255 17.5980917325
Ni 0.0000000000 26.3971375988 19.3579009058
Ni 1.7598091733 24.6373284255 19.3579009058
Ni 1.7598091733 26.3971375988 17.5980917325
Ni 0.0000000000 24.6373284255 21.1177100790
Ni 0.0000000000 26.3971375988 22.8775192523
Ni 1.7598091733 24.6373284255 22.8775192523
Ni 1.7598091733 26.3971375988 21.1177100790
Ni 0.0000000000 24.6373284255 24.6373284255
Ni 0.0000000000 26.3971375988 26.3971375988
Ni 1.7598091733 24.6373284255 26.3971375988
Ni 1.7598091733 26.3971375988 24.6373284255
Ni 3.5196183465 0.0000000000 0.0000000000
Ni 3.5196183465 1.7598091733 1.7598091733
Ni 5.2794275198 0.0000000000 1.7598091733
Ni 5.2794275198 1.7598091733 0.0000000000
Ni 3.5196183465 0.0000000000 3.5196183465
Ni 3.5196183465 1.7598091733 5.2794275198
Ni 5.2794275198 0.0000000000 5.2794275198
Ni 5.2794275198 1.7598091733 3.5196183465
Ni 3.5196183465 0.0000000000 7.0392366930
Ni 3.5196183465 1.7598091733 8.7990458663
Ni 5.2794275198 0.0000000000 8.7990458663
Ni 5.2794275198 1.7598091733 7.0392366930
Ni 3.5196183465 0.0000000000 10.5588550395
Ni 3.5196183465 1.7598091733 12.3186642128
Ni 5.2794275198 0.0000000000 12.3186642128
Ni 5.2794275198 1.7598091733 10.5588550395
Ni 3.5196183465 0.0000000000 14.0784733860
Ni 3.5196183465 1.7598091733 15.8382825593
Ni 5.2794275198 0.0000000000 15.8382825593
Ni 5.2794275198 1.7598091733 14.0784733860
Ni 3.5196183465 0.0000000000 17.5980917325
Ni 3.5196183465 1.7598091733 19.3579009058
Ni 5.2794275198 0.0000000000 19.3579009058
Ni 5.2794275198 1.7598091733 17.5980917325
Ni 3.5196183465 0.0000000000 21.1177100790
Ni 3.5196183465 1.7598091733 22.8775192523
Ni 5.2794275198 0.0000000000 22.8775192523
Ni 5.2794275198 1.7598091733 21.1177100790
Ni 3.5196183465 0.0000000000 24.6373284255
Ni 3.5196183465 1.7598091733 26.3971375988
Ni 5.2794275198 0.0000000000 26.3971375988
Ni 5.2794275198 1.7598091733 24.6373284255
Ni 3.5196183465 3.5196183465 0.0000000000
Ni 3.5196183465 5.2794275198 1.7598091733
Ni 5.2794275198 3.5196183465 1.7598091733
Ni 5.2794275198 5.2794275198 0.0000000000
Ni 3.5196183465 3.5196183465 3.5196183465
Ni 3.5196183465 5.2794275198 5.2794275198
Ni 5.2794275198 3.5196183465 5.2794275198
Ni 5.2794275198 5.2794275198 3.5196183465
Ni 3.5196183465 3.5196183465 7.0392366930
Ni 3.5196183465 5.2794275198 8.7990458663
Ni 5.2794275198 3.5196183465 8.7990458663
Ni 5.2794275198 5.2794275198 7.0392366930
Ni 3.5196183465 3.5196183465 10.5588550395
Ni 3.5196183465 5.2794275198 12.3186642128
Ni 5.2794275198 3.5196183465 12.3186642128
Ni 5.2794275198 5.2794275198 10.5588550395
Ni 3.5196183465 3.5196183465 14.0784733860
Ni 3.5196183465 5.2794275198 15.8382825593
Ni 5.2794275198 3.5196183465 15.8382825593
Ni 5.2794275198 5.2794275198 14.0784733860
Ni 3.5196183465 3.5196183465 17.5980917325
Ni 3.5196183465 5.2794275198 19.3579009058
Ni 5.2794275198 3.5196183465 19.3579009058
Ni 5.2794275198 5.2794275198 17.5980917325
Ni 3.5196183465 3.5196183465 21.1177100790
Ni 3.5196183465 5.2794275198 22.8775192523
Ni 5.2794275198 3.5196183465 22.8775192523
Ni 5.2794275198 5.2794275198 21.1177100790
Ni 3.5196183465 3.5196183465 24.6373284255
Ni 3.5196183465 5.2794275198 26.3971375988
Ni 5.2794275198 3.5196183465 26.3971375988
Ni 5.2794275198 5.2794275198 24.6373284255
Ni 3.5196183465 7.0392366930 0.0000000000
Ni 3.5196183465 8.7990458663 1.7598091733
Ni 5.2794275198 7.0392366930 1.7598091733
Ni 5.2794275198 8.7990458663 0.0000000000
Ni 3.5196183465 7.0392366930 3.5196183465
Ni 3.5196183465 8.7990458663 5.2794275198
Ni 5.2794275198 7.0392366930 5.2794275198
Ni 5.2794275198 8.7990458663 3.5196183465
Ni 3.5196183465 7.0392366930 7.0392366930
Ni 3.5196183465 8.7990458663 8.7990458663
Ni 5.2794275198 7.0392366930 8.7990458663
Ni 5.2794275198 8.7990458663 7.0392366930
Ni 3.5196183465 7.0392366930 10.5588550395
Ni 3.5196183465 8.7990458663 12.3186642128
Ni 5.2794275198 7.0392366930 12.3186642128
Ni 5.2794275198 8.7990458663 10.5588550395
Ni 3.5196183465 7.0392366930 14.0784733860
Ni 3.5196183465 8.7990458663 15.8382825593
Ni 5.2794275198 7.0392366930 15.8382825593
Ni 5.2794275198 8.7990458663 14.0784733860
Ni 3.5196183465 7.0392366930 17.5980917325
Ni 3.5196183465 8.7990458663 19.3579009058
Ni 5.2794275198 7.0392366930 19.3579009058
Ni 5.2794275198 8.7990458663 17.5980917325
Ni 3.5196183465 7.0392366930 21.1177100790
Ni 3.5196183465 8.7990458663 22.8775192523
Ni 5.2794275198 7.0392366930 22.8775192523
Ni 5.2794275198 8.7990458663 21.1177100790
Ni 3.5196183465 7.0392366930 24.6373284255
Ni 3.5196183465 8.7990458663 26.3971375988
Ni 5.2794275198 7.0392366930 26.3971375988
Ni 5.2794275198 8.7990458663 24.6373284255
Ni 3.5196183465 10.5588550395 0.0000000000
Ni 3.5196183465 12.3186642128 1.7598091733
Ni 5.2794275198 10.5588550395 1.7598091733
Ni 5.2794275198 12.3186642128 0.0000000000
Ni 3.5196183465 10.5588550395 3.5196183465
Ni 3.5196183465 12.3186642128 5.2794275198
Ni 5.2794275198 10.5588550395 5.2794275198
Ni 5.2794275198 12.3186642128 3.5196183465
Ni 3.5196183465 10.5588550395 7.0392366930
Ni 3.5196183465 12.3186642128 8.7990458663
Ni 5.2794275198 10.5588550395 8.7990458663
Ni 5.2794275198 12.3186642128 7.0392366930
Ni 3.5196183465 10.5588550395 10.5588550395
Ni 3.5196183465 12.3186642128 12.3186642128
Ni 5.2794275198 10.5588550395 12.3186642128
Ni 5.2794275198 12.3186642128 10.5588550395
Ni 3.5196183465 10.5588550395 14.0784733860
Ni 3.5196183465 12.3186642128 15.8382825593
Ni 5.2794275198 10.5588550395 15.8382825593
Ni 5.2794275198 12.3186642128 14.0784733860
Ni 3.5196183465 10.5588550395 17.5980917325
Ni 3.5196183465 12.3186642128 19.3579009058
Ni 5.2794275198 10.5588550395 19.3579009058
Ni 5.2794275198 12.3186642128 17.5980917325
Ni 3.5196183465 10.5588550395 21.1177100790
Ni 3.5196183465 12.3186642128 22.8775192523
Ni 5.2794275198 10.5588550395 22.8775192523
Ni 5.2794275198 12.3186642128 21.1177100790
Ni 3.5196183465 10.5588550395 24.6373284255
Ni 3.5196183465 12.3186642128 26.3971375988
Ni 5.2794275198 10.5588550395 26.3971375988
Ni 5.2794275198 12.3186642128 24.6373284255
Ni 3.5196183465 14.0784733860 0.0000000000
Ni 3.5196183465 15.8382825593 1.7598091733
Ni 5.2794275198 14.0784733860 1.7598091733
Ni 5.2794275198 15.8382825593 0.0000000000
Ni 3.5196183465 14.0784733860 3.5196183465
Ni 3.5196183465 15.8382825593 5.2794275198
Ni 5.2794275198 14.0784733860 5.2794275198
Ni 5.2794275198 15.8382825593 3.5196183465
Ni 3.5196183465 14.0784733860 7.0392366930
Ni 3.5196183465 15.8382825593 8.7990458663
Ni 5.2794275198 14.0784733860 8.7990458663
Ni 5.2794275198 15.8382825593 7.0392366930
Ni 3.5196183465 14.0784733860 10.5588550395
Ni 3.5196183465 15.8382825593 12.3186642128
Ni 5.2794275198 14.0784733860 12.3186642128
Ni 5.2794275198 15.8382825593 10.5588550395
Ni 3.5196183465 14.0784733860 14.0784733860
Ni 3.5196183465 15.8382825593 15.8382825593
Ni 5.2794275198 14.0784733860 15.8382825593
Ni 5.2794275198 15.8382825593 14.0784733860
Ni 3.5196183465 14.0784733860 17.5980917325
Ni 3.5196183465 15.8382825593 19.3579009058
Ni 5.2794275198 14.0784733860 19.3579009058
Ni 5.2794275198 15.8382825593 17.5980917325
Ni 3.5196183465 14.0784733860 21.1177100790
Ni 3.5196183465 15.8382825593 22.8775192523
Ni 5.2794275198 14.0784733860 22.8775192523
Ni 5.2794275198 15.8382825593 21.1177100790
Ni 3.5196183465 14.0784733860 24.6373284255
Ni 3.5196183465 15.8382825593 26.3971375988
Ni 5.2794275198 14.0784733860 26.3971375988
Ni 5.2794275198 15.8382825593 24.6373284255
Ni 3.5196183465 17.5980917325 0.0000000000
Ni 3.5196183465 19.3579009058 1.7598091733
Ni 5.2794275198 17.5980917325 1.7598091733
Ni 5.2794275198 19.3579009058 0.0000000000
Ni 3.5196183465 17.5980917325 3.5196183465
Ni 3.5196183465 19.3579009058 5.2794275198
Ni 5.2794275198 17.5980917325 5.2794275198
Ni 5.2794275198 19.3579009058 3.5196183465
Ni 3.5196183465 17.5980917325 7.0392366930
Ni 3.5196183465 19.3579009058 8.7990458663
Ni 5.2794275198 17.5980917325 8.7990458663
Ni 5.2794275198 19.3579009058 7.0392366930
Ni 3.5196183465 17.5980917325 10.5588550395
Ni 3.5196183465 19.3579009058 12.3186642128
Ni 5.2794275198 17.5980917325 12.3186642128
Ni 5.2794275198 19.3579009058 10.5588550395
Ni 3.5196183465 17.5980917325 14.0784733860
Ni 3.5196183465 19.3579009058 15.8382825593
Ni 5.2794275198 17.5980917325 15.8382825593
Ni 5.2794275198 19.3579009058 14.0784733860
Ni 3.5196183465 17.5980917325 17.5980917325
Ni 3.5196183465 19.3579009058 19.3579009058
Ni 5.2794275198 17.5980917325 19.3579009058
Ni 5.2794275198 19.3579009058 17.5980917325
Ni 3.5196183465 17.5980917325 21.1177100790
Ni 3.5196183465 19.3579009058 22.8775192523
Ni 5.2794275198 17.5980917325 22.8775192523
Ni 5.2794275198 19.3579009058 21.1177100790
Ni 3.5196183465 17.5980917325 24.6373284255
Ni 3.5196183465 19.3579009058 26.3971375988
Ni 5.2794275198 17.5980917325 26.3971375988
Ni 5.2794275198 19.3579009058 24.6373284255
Ni 3.5196183465 21.1177100790 0.0000000000
Ni 3.5196183465 22.8775192523 1.7598091733
Ni 5.2794275198 21.1177100790 1.7598091733
Ni 5.2794275198 22.8775192523 0.0000000000
Ni 3.5196183465 21.1177100790 3.5196183465
Ni 3.5196183465 22.8775192523 5.2794275198
Ni 5.2794275198 21.1177100790 5.2794275198
Ni 5.2794275198 22.8775192523 3.5196183465
Ni 3.5196183465 21.1177100790 7.0392366930
Ni 3.5196183465 22.8775192523 8.7990458663
Ni 5.2794275198 21.1177100790 8.7990458663
Ni 5.2794275198 22.8775192523 7.0392366930
Ni 3.5196183465 21.1177100790 10.5588550395
Ni 3.5196183465 22.8775192523 12.3186642128
Ni 5.2794275198 21.1177100790 12.3186642128
Ni 5.2794275198 22.8775192523 10.5588550395
Ni 3.5196183465 21.1177100790 14.0784733860
Ni 3.5196183465 22.8775192523 15.8382825593
Ni 5.2794275198 21.1177100790 15.8382825593
Ni 5.2794275198 22.8775192523 14.0784733860
Ni 3.5196183465 21.1177100790 17.5980917325
Ni 3.5196183465 22.8775192523 19.3579009058
Ni 5.2794275198 21.1177100790 19.3579009058
Ni 5.2794275198 22.8775192523 17.5980917325
Ni 3.5196183465 21.1177100790 21.1177100790
Ni 3.5196183465 22.8775192523 22.8775192523
Ni 5.2794275198 21.1177100790 22.8775192523
Ni 5.2794275198 22.8775192523 21.1177100790
Ni 3.5196183465 21.1177100790 24.6373284255
Ni 3.5196183465 22.8775192523 26.3971375988
Ni 5.2794275198 21.1177100790 26.3971375988
Ni 5.2794275198 22.8775192523 24.6373284255
Ni 3.5196183465 24.6373284255 0.0000000000
Ni 3.5196183465 26.3971375988 1.7598091733
Ni 5.2794275198 24.6373284255 1.7598091733
Ni 5.2794275198 26.3971375988 0.0000000000
Ni 3.5196183465 24.6373284255 3.5196183465
Ni 3.5196183465 26.3971375988 5.2794275198
Ni 5.2794275198 24.6373284255 5.2794275198
Ni 5.2794275198 26.3971375988 3.5196183465
Ni 3.5196183465 24.6373284255 7.0392366930
Ni 3.5196183465 26.3971375988 8.7990458663
Ni 5.2794275198 24.6373284255 8.7990458663
Ni 5.2794275198 26.3971375988 7.0392366930
Ni 3.5196183465 24.6373284255 10.5588550395
Ni 3.5196183465 26.3971375988 12.3186642128
Ni 5.2794275198 24.6373284255 12.3186642128
Ni 5.2794275198 26.3971375988 10.5588550395
Ni 3.5196183465 24.6373284255 14.0784733860
Ni 3.5196183465 26.3971375988 15.8382825593
Ni 5.2794275198 24.6373284255 15.8382825593
Ni 5.2794275198 26.3971375988 14.0784733860
Ni 3.5196183465 24.6373284255 17.5980917325
Ni 3.5196183465 26.3971375988 19.3579009058
Ni 5.2794275198 24.6373284255 19.3579009058
Ni 5.2794275198 26.3971375988 17.5980917325
Ni 3.5196183465 24.6373284255 21.1177100790
Ni 3.5196183465 26.3971375988 22.8775192523
Ni 5.2794275198 24.6373284255 22.8775192523
Ni 5.2794275198 26.3971375988 21.1177100790
Ni 3.5196183465 24.6373284255 24.6373284255
Ni 3.5196183465 26.3971375988 26.3971375988
Ni 5.2794275198 24.6373284255 26.3971375988
Ni 5.2794275198 26.3971375988 24.6373284255
Ni 7.0392366930 0.0000000000 0.0000000000
Ni 7.0392366930 1.7598091733 1.7598091733
Ni 8.7990458663 0.0000000000 1.7598091733
Ni 8.7990458663 1.7598091733 0.0000000000
Ni 7.0392366930 0.0000000000 3.5196183465
Ni 7.0392366930 1.7598091733 5.2794275198
Ni 8.7990458663 0.0000000000 5.2794275198
Ni 8.7990458663 1.7598091733 3.5196183465
Ni 7.0392366930 0.0000000000 7.0392366930
Ni 7.0392366930 1.7598091733 8.7990458663
Ni 8.7990458663 0.0000000000 8.7990458663
Ni 8.7990458663 1.7598091733 7.0392366930
Ni 7.0392366930 0.0000000000 10.5588550395
Ni 7.0392366930 1.7598091733 12.3186642128
Ni 8.7990458663 0.0000000000 12.3186642128
Ni 8.7990458663 1.7598091733 10.5588550395
Ni 7.0392366930 0.0000000000 14.0784733860
Ni 7.0392366930 1.7598091733 15.8382825593
Ni 8.7990458663 0.0000000000 15.8382825593
Ni 8.7990458663 1.7598091733 14.0784733860
Ni 7.0392366930 0.0000000000 17.5980917325
Ni 7.0392366930 1.7598091733 19.3579009058
Ni 8.7990458663 0.0000000000 19.3579009058
Ni 8.7990458663 1.7598091733 17.5980917325
Ni 7.0392366930 0.0000000000 21.1177100790
Ni 7.0392366930 1.7598091733 22.8775192523
Ni 8.7990458663 0.0000000000 22.8775192523
Ni 8.7990458663 1.7598091733 21.1177100790
Ni 7.0392366930 0.0000000000 24.6373284255
Ni 7.0392366930 1.7598091733 26.3971375988
Ni 8.7990458663 0.0000000000 26.3971375988
Ni 8.7990458663 1.7598091733 24.6373284255
Ni 7.0392366930 3.5196183465 0.0000000000
Ni 7.0392366930 5.2794275198 1.7598091733
Ni 8.7990458663 3.5196183465 1.7598091733
Ni 8.7990458663 5.2794275198 0.0000000000
Ni 7.0392366930 3.5196183465 3.5196183465
Ni 7.0392366930 5.2794275198 5.2794275198
Ni 8.7990458663 3.5196183465 5.2794275198
Ni 8.7990458663 5.2794275198 3.5196183465
Ni 7.0392366930 3.5196183465 7.0392366930
Ni 7.0392366930 5.2794275198 8.7990458663
Ni 8.7990458663 3.5196183465 8.7990458663
Ni 8.7990458663 5.2794275198 7.0392366930
Ni 7.0392366930 3.5196183465 10.5588550395
Ni 7.0392366930 5.2794275198 12.3186642128
Ni 8.7990458663 3.5196183465 12.3186642128
Ni 8.7990458663 5.2794275198 10.5588550395
Ni 7.0392366930 3.5196183465 14.0784733860
Ni 7.0392366930 5.2794275198 15.8382825593
Ni 8.7990458663 3.5196183465 15.8382825593
Ni 8.7990458663 5.2794275198 14.0784733860
Ni 7.0392366930 3.5196183465 17.5980917325
Ni 7.0392366930 5.2794275198 19.3579009058
Ni 8.7990458663 3.5196183465 19.3579009058
Ni 8.7990458663 5.2794275198 17.5980917325
Ni 7.0392366930 3.5196183465 21.1177100790
Ni 7.0392366930 5.2794275198 22.8775192523
Ni 8.7990458663 3.5196183465 22.8775192523
Ni 8.7990458663 5.2794275198 21.1177100790
Ni 7.0392366930 3.5196183465 24.6373284255
Ni 7.0392366930 5.2794275198 26.3971375988
Ni 8.7990458663 3.5196183465 26.3971375988
Ni 8.7990458663 5.2794275198 24.6373284255
Ni 7.0392366930 7.0392366930 0.0000000000
Ni 7.0392366930 8.7990458663 1.7598091733
Ni 8.7990458663 7.0392366930 1.7598091733
Ni 8.7990458663 8.7990458663 0.0000000000
Ni 7.0392366930 7.0392366930 3.5196183465
Ni 7.0392366930 8.7990458663 5.2794275198
Ni 8.7990458663 7.0392366930 5.2794275198
Ni 8.7990458663 8.7990458663 3.5196183465
Ni 7.0392366930 7.0392366930 7.0392366930
Ni 7.0392366930 8.7990458663 8.7990458663
Ni 8.7990458663 7.0392366930 8.7990458663
Ni 8.7990458663 8.7990458663 7.0392366930
Ni 7.0392366930 7.0392366930 10.5588550395
Ni 7.0392366930 8.7990458663 12.3186642128
Ni 8.7990458663 7.0392366930 12.3186642128
Ni 8.7990458663 8.7990458663 10.5588550395
Ni 7.0392366930 7.0392366930 14.0784733860
Ni 7.0392366930 8.7990458663 15.8382825593
Ni 8.7990458663 7.0392366930 15.8382825593
Ni 8.7990458663 8.7990458663 14.0784733860
Ni 7.0392366930 7.0392366930 17.5980917325
Ni 7.0392366930 8.7990458663 19.3579009058
Ni 8.7990458663 7.0392366930 19.3579009058
Ni 8.7990458663 8.7990458663 17.5980917325
Ni 7.0392366930 7.0392366930 21.1177100790
Ni 7.0392366930 8.7990458663 22.8775192523
Ni 8.7990458663 7.0392366930 22.8775192523
Ni 8.7990458663 8.7990458663 21.1177100790
Ni 7.0392366930 7.0392366930 24.6373284255
Ni 7.0392366930 8.7990458663 26.3971375988
Ni 8.7990458663 7.0392366930 26.3971375988
Ni 8.7990458663 8.7990458663 24.6373284255
Ni 7.0392366930 10.5588550395 0.0000000000
Ni 7.0392366930 12.3186642128 1.7598091733
Ni 8.7990458663 10.5588550395 1.7598091733
Ni 8.7990458663 12.3186642128 0.0000000000
Ni 7.0392366930 10.5588550395 3.5196183465
Ni 7.0392366930 12.3186642128 5.2794275198
Ni 8.7990458663 10.5588550395 5.2794275198
Ni 8.7990458663 12.3186642128 3.5196183465
Ni 7.0392366930 10.5588550395 7.0392366930
Ni 7.0392366930 12.3186642128 8.7990458663
Ni 8.7990458663 10.5588550395 8.7990458663
Ni 8.7990458663 12.3186642128 7.0392366930
Ni 7.0392366930 10.5588550395 10.5588550395
Ni 7.0392366930 12.3186642128 12.3186642128
Ni 8.7990458663 10.5588550395 12.3186642128
Ni 8.7990458663 12.3186642128 10.5588550395
Ni 7.0392366930 10.5588550395 14.0784733860
Ni 7.0392366930 12.3186642128 15.8382825593
Ni 8.7990458663 10.5588550395 15.8382825593
Ni 8.7990458663 12.3186642128 14.0784733860
Ni 7.0392366930 10.5588550395 17.5980917325
Ni 7.0392366930 12.3186642128 19.3579009058
Ni 8.7990458663 10.5588550395 19.3579009058
Ni 8.7990458663 12.3186642128 17.5980917325
Ni 7.0392366930 10.5588550395 21.1177100790
Ni 7.0392366930 12.3186642128 22.8775192523
Ni 8.7990458663 10.5588550395 22.8775192523
Ni 8.7990458663 12.3186642128 21.1177100790
Ni 7.0392366930 10.5588550395 24.6373284255
Ni 7.0392366930 12.3186642128 26.3971375988
Ni 8.7990458663 10.5588550395 26.3971375988
Ni 8.7990458663 12.3186642128 24.6373284255
Ni 7.0392366930 14.0784733860 0.0000000000
Ni 7.0392366930 15.8382825593 1.7598091733
Ni 8.7990458663 14.0784733860 1.7598091733
Ni 8.7990458663 15.8382825593 0.0000000000
Ni 7.0392366930 14.0784733860 3.5196183465
Ni 7.0392366930 15.8382825593 5.2794275198
Ni 8.7990458663 14.0784733860 5.2794275198
Ni 8.7990458663 15.8382825593 3.5196183465
Ni 7.0392366930 14.0784733860 7.0392366930
Ni 7.0392366930 15.8382825593 8.7990458663
Ni 8.7990458663 14.0784733860 8.7990458663
Ni 8.7990458663 15.8382825593 7.0392366930
Ni 7.0392366930 14.0784733860 10.5588550395
Ni 7.0392366930 15.8382825593 12.3186642128
Ni 8.7990458663 14.0784733860 12.3186642128
Ni 8.7990458663 15.8382825593 10.5588550395
Ni 7.0392366930 14.0784733860 14.0784733860
Ni 7.0392366930 15.8382825593 15.8382825593
Ni 8.7990458663 14.0784733860 15.8382825593
Ni 8.7990458663 15.8382825593 14.0784733860
Ni 7.0392366930 14.0784733860 17.5980917325
Ni 7.0392366930 15.8382825593 19.3579009058
Ni 8.7990458663 14.0784733860 19.3579009058
Ni 8.7990458663 15.8382825593 17.5980917325
Ni 7.0392366930 14.0784733860 21.1177100790
Ni 7.0392366930 15.8382825593 22.8775192523
Ni 8.7990458663 14.0784733860 22.8775192523
Ni 8.7990458663 15.8382825593 21.1177100790
Ni 7.0392366930 14.0784733860 24.6373284255
Ni 7.0392366930 15.8382825593 26.3971375988
Ni 8.7990458663 14.0784733860 26.3971375988
Ni 8.7990458663 15.8382825593 24.6373284255
Ni 7.0392366930 17.5980917325 0.0000000000
Ni 7.0392366930 19.3579009058 1.7598091733
Ni 8.7990458663 17.5980917325 1.7598091733
Ni 8.7990458663 19.3579009058 0.0000000000
Ni 7.0392366930 17.5980917325 3.5196183465
Ni 7.0392366930 19.3579009058 5.2794275198
Ni 8.7990458663 17.5980917325 5.2794275198
Ni 8.7990458663 19.3579009058 3.5196183465
Ni 7.0392366930 17.5980917325 7.0392366930
Ni 7.0392366930 19.3579009058 8.7990458663
Ni 8.7990458663 17.5980917325 8.7990458663
Ni 8.7990458663 19.3579009058 7.0392366930
Ni 7.0392366930 17.5980917325 10.5588550395
Ni 7.0392366930 19.3579009058 12.3186642128
Ni 8.7990458663 17.5980917325 12.3186642128
Ni 8.7990458663 19.3579009058 10.5588550395
Ni 7.0392366930 17.5980917325 14.0784733860
Ni 7.0392366930 19.3579009058 15.8382825593
Ni 8.7990458663 17.5980917325 15.8382825593
Ni 8.7990458663 19.3579009058 14.0784733860
Ni 7.0392366930 17.5980917325 17.5980917325
Ni 7.0392366930 19.3579009058 19.3579009058
Ni 8.7990458663 17.5980917325 19.3579009058
Ni 8.7990458663 19.3579009058 17.5980917325
Ni 7.0392366930 17.5980917325 21.1177100790
Ni 7.0392366930 19.3579009058 22.8775192523
Ni 8.7990458663 17.5980917325 22.8775192523
Ni 8.7990458663 19.3579009058 21.1177100790
Ni 7.0392366930 17.5980917325 24.6373284255
Ni 7.0392366930 19.3579009058 26.3971375988
Ni 8.7990458663 17.5980917325 26.3971375988
Ni 8.7990458663 19.3579009058 24.6373284255
Ni 7.0392366930 21.1177100790 0.0000000000
Ni 7.0392366930 22.8775192523 1.7598091733
Ni 8.7990458663 21.1177100790 1.7598091733
Ni 8.7990458663 22.8775192523 0.0000000000
Ni 7.0392366930 21.1177100790 3.5196183465
Ni 7.0392366930 22.8775192523 5.2794275198
Ni 8.7990458663 21.1177100790 5.2794275198
Ni 8.7990458663 22.8775192523 3.5196183465
Ni 7.0392366930 21.1177100790 7.0392366930
Ni 7.0392366930 22.8775192523 8.7990458663
Ni 8.7990458663 21.1177100790 8.7990458663
Ni 8.7990458663 22.8775192523 7.0392366930
Ni 7.0392366930 21.1177100790 10.5588550395
Ni 7.0392366930 22.8775192523 12.3186642128
Ni 8.7990458663 21.1177100790 12.3186642128
Ni 8.7990458663 22.8775192523 10.5588550395
Ni 7.0392366930 21.1177100790 14.0784733860
Ni 7.0392366930 22.8775192523 15.8382825593
Ni 8.7990458663 21.1177100790 15.8382825593
Ni 8.7990458663 22.8775192523 14.0784733860
Ni 7.0392366930 21.1177100790 17.5980917325
Ni 7.0392366930 22.8775192523 19.3579009058
Ni 8.7990458663 21.1177100790 19.3579009058
Ni 8.7990458663 22.8775192523 17.5980917325
Ni 7.0392366930 21.1177100790 21.1177100790
Ni 7.0392366930 22.8775192523 22.8775192523
Ni 8.7990458663 21.1177100790 22.8775192523
Ni 8.7990458663 22.8775192523 21.1177100790
Ni 7.0392366930 21.1177100790 24.6373284255
Ni 7.0392366930 22.8775192523 26.3971375988
Ni 8.7990458663 21.1177100790 26.3971375988
Ni 8.7990458663 22.8775192523 24.6373284255
Ni 7.0392366930 24.6373284255 0.0000000000
Ni 7.0392366930 26.3971375988 1.7598091733
Ni 8.7990458663 24.6373284255 1.7598091733
Ni 8.7990458663 26.3971375988 0.0000000000
Ni 7.0392366930 24.6373284255 3.5196183465
Ni 7.0392366930 26.3971375988 5.2794275198
Ni 8.7990458663 24.6373284255 5.2794275198
Ni 8.7990458663 26.3971375988 3.5196183465
Ni 7.0392366930 24.6373284255 7.0392366930
Ni 7.0392366930 26.3971375988 8.7990458663
Ni 8.7990458663 24.6373284255 8.7990458663
Ni 8.7990458663 26.3971375988 7.0392366930
Ni 7.0392366930 24.6373284255 10.5588550395
Ni 7.0392366930 26.3971375988 12.3186642128
Ni 8.7990458663 24.6373284255 12.3186642128
Ni 8.7990458663 26.3971375988 10.5588550395
Ni 7.0392366930 24.6373284255 14.0784733860
Ni 7.0392366930 26.3971375988 15.8382825593
Ni 8.7990458663 24.6373284255 15.8382825593
Ni 8.7990458663 26.3971375988 14.0784733860
Ni 7.0392366930 24.6373284255 17.5980917325
Ni 7.0392366930 26.3971375988 19.3579009058
Ni 8.7990458663 24.6373284255 19.3579009058
Ni 8.7990458663 26.3971375988 17.5980917325
Ni 7.0392366930 24.6373284255 21.1177100790
Ni 7.0392366930 26.3971375988 22.8775192523
Ni 8.7990458663 24.6373284255 22.8775192523
Ni 8.7990458663 26.3971375988 21.1177100790
Ni 7.0392366930 24.6373284255 24.6373284255
Ni 7.0392366930 26.3971375988 26.3971375988
Ni 8.7990458663 24.6373284255 26.3971375988
Ni 8.7990458663 26.3971375988 24.6373284255
Ni 10.5588550395 0.0000000000 0.0000000000
Ni 10.5588550395 1.7598091733 1.7598091733
Ni 12.3186642128 0.0000000000 1.7598091733
Ni 12.3186642128 1.7598091733 0.0000000000
Ni 10.5588550395 0.0000000000 3.5196183465
Ni 10.5588550395 1.7598091733 5.2794275198
Ni 12.3186642128 0.0000000000 5.2794275198
Ni 12.3186642128 1.7598091733 3.5196183465
Ni 10.5588550395 0.0000000000 7.0392366930
Ni 10.5588550395 1.7598091733 8.7990458663
Ni 12.3186642128 0.0000000000 8.7990458663
Ni 12.3186642128 1.7598091733 7.0392366930
Ni 10.5588550395 0.0000000000 10.5588550395
Ni 10.5588550395 1.7598091733 12.3186642128
Ni 12.3186642128 0.0000000000 12.3186642128
Ni 12.3186642128 1.7598091733 10.5588550395
Ni 10.5588550395 0.0000000000 14.0784733860
Ni 10.5588550395 1.7598091733 15.8382825593
Ni 12.3186642128 0.0000000000 15.8382825593
Ni 12.3186642128 1.7598091733 14.0784733860
Ni 10.5588550395 0.0000000000 17.5980917325
Ni 10.5588550395 1.7598091733 19.3579009058
Ni 12.3186642128 0.0000000000 19.3579009058
Ni 12.3186642128 1.7598091733 17.5980917325
Ni 10.5588550395 0.0000000000 21.1177100790
Ni 10.5588550395 1.7598091733 22.8775192523
Ni 12.3186642128 0.0000000000 22.8775192523
Ni 12.3186642128 1.7598091733 21.1177100790
Ni 10.5588550395 0.0000000000 24.6373284255
Ni 10.5588550395 1.7598091733 26.3971375988
Ni 12.3186642128 0.0000000000 26.3971375988
Ni 12.3186642128 1.7598091733 24.6373284255
Ni 10.5588550395 3.5196183465 0.0000000000
Ni 10.5588550395 5.2794275198 1.7598091733
Ni 12.3186642128 3.5196183465 1.7598091733
Ni 12.3186642128 5.2794275198 0.0000000000
Ni 10.5588550395 3.5196183465 3.5196183465
Ni 10.5588550395 5.2794275198 5.2794275198
Ni 12.3186642128 3.5196183465 5.2794275198
Ni 12.3186642128 5.2794275198 3.5196183465
Ni 10.5588550395 3.5196183465 7.0392366930
Ni 10.5588550395 5.2794275198 8.7990458663
Ni 12.3186642128 3.5196183465 8.7990458663
Ni 12.3186642128 5.2794275198 7.0392366930
Ni 10.5588550395 3.5196183465 10.5588550395
Ni 10.5588550395 5.2794275198 12.3186642128
Ni 12.3186642128 3.5196183465 12.3186642128
Ni 12.3186642128 5.2794275198 10.5588550395
Ni 10.5588550395 3.5196183465 14.0784733860
Ni 10.5588550395 5.2794275198 15.8382825593
Ni 12.3186642128 3.5196183465 15.8382825593
Ni 12.3186642128 5.2794275198 14.0784733860
Ni 10.5588550395 3.5196183465 17.5980917325
Ni 10.5588550395 5.2794275198 19.3579009058
Ni 12.3186642128 3.5196183465 19.3579009058
Ni 12.3186642128 5.2794275198 17.5980917325
Ni 10.5588550395 3.5196183465 21.1177100790
Ni 10.5588550395 5.2794275198 22.8775192523
Ni 12.3186642128 3.5196183465 22.8775192523
Ni 12.3186642128 5.2794275198 21.1177100790
Ni 10.5588550395 3.5196183465 24.6373284255
Ni 10.5588550395 5.2794275198 26.3971375988
Ni 12.3186642128 3.5196183465 26.3971375988
Ni 12.3186642128 5.2794275198 24.6373284255
Ni 10.5588550395 7.0392366930 0.0000000000
Ni 10.5588550395 8.7990458663 1.7598091733
Ni 12.3186642128 7.0392366930 1.7598091733
Ni 12.3186642128 8.7990458663 0.0000000000
Ni 10.5588550395 7.0392366930 3.5196183465
Ni 10.5588550395 8.7990458663 5.2794275198
Ni 12.3186642128 7.0392366930 5.2794275198
Ni 12.3186642128 8.7990458663 3.5196183465
Ni 10.5588550395 7.0392366930 7.0392366930
Ni 10.5588550395 8.7990458663 8.7990458663
Ni 12.3186642128 7.0392366930 8.7990458663
Ni 12.3186642128 8.7990458663 7.0392366930
Ni 10.5588550395 7.0392366930 10.5588550395
Ni 10.5588550395 8.7990458663 12.3186642128
Ni 12.3186642128 7.0392366930 12.3186642128
Ni 12.3186642128 8.7990458663 10.5588550395
Ni 10.5588550395 7.0392366930 14.0784733860
Ni 10.5588550395 8.7990458663 15.8382825593
Ni 12.3186642128 7.0392366930 15.8382825593
Ni 12.3186642128 8.7990458663 14.0784733860
Ni 10.5588550395 7.0392366930 17.5980917325
Ni 10.5588550395 8.7990458663 19.3579009058
Ni 12.3186642128 7.0392366930 19.3579009058
Ni 12.3186642128 8.7990458663 17.5980917325
Ni 10.5588550395 7.0392366930 21.1177100790
Ni 10.5588550395 8.7990458663 22.8775192523
Ni 12.3186642128 7.0392366930 22.8775192523
Ni 12.3186642128 8.7990458663 21.1177100790
Ni 10.5588550395 7.0392366930 24.6373284255
Ni 10.5588550395 8.7990458663 26.3971375988
Ni 12.3186642128 7.0392366930 26.3971375988
Ni 12.3186642128 8.7990458663 24.6373284255
Ni 10.5588550395 10.5588550395 0.0000000000
Ni 10.5588550395 12.3186642128 1.7598091733
Ni 12.3186642128 10.5588550395 1.7598091733
Ni 12.3186642128 12.3186642128 0.0000000000
Ni 10.5588550395 10.5588550395 3.5196183465
Ni 10.5588550395 12.3186642128 5.2794275198
Ni 12.3186642128 10.5588550395 5.2794275198
Ni 12.3186642128 12.3186642128 3.5196183465
Ni 10.5588550395 10.5588550395 7.0392366930
Ni 10.5588550395 12.3186642128 8.7990458663
Ni 12.3186642128 10.5588550395 8.7990458663
Ni 12.3186642128 12.3186642128 7.0392366930
Ni 10.5588550395 10.5588550395 10.5588550395
Ni 10.5588550395 12.3186642128 12.3186642128
Ni 12.3186642128 10.5588550395 12.3186642128
Ni 12.3186642128 12.3186642128 10.5588550395
Ni 10.5588550395 10.5588550395 14.0784733860
Ni 10.5588550395 12.3186642128 15.8382825593
Ni 12.3186642128 10.5588550395 15.8382825593
Ni 12.3186642128 12.3186642128 14.0784733860
Ni 10.5588550395 10.5588550395 17.5980917325
Ni 10.5588550395 12.3186642128 19.3579009058
Ni 12.3186642128 10.5588550395 19.3579009058
Ni 12.3186642128 12.3186642128 17.5980917325
Ni 10.5588550395 10.5588550395 21.1177100790
Ni 10.5588550395 12.3186642128 22.8775192523
Ni 12.3186642128 10.5588550395 22.8775192523
Ni 12.3186642128 12.3186642128 21.1177100790
Ni 10.5588550395 10.5588550395 24.6373284255
Ni 10.5588550395 12.3186642128 26.3971375988
Ni 12.3186642128 10.5588550395 26.3971375988
Ni 12.3186642128 12.3186642128 24.6373284255
Ni 10.5588550395 14.0784733860 0.0000000000
Ni 10.5588550395 15.8382825593 1.7598091733
Ni 12.3186642128 14.0784733860 1.7598091733
Ni 12.3186642128 15.8382825593 0.0000000000
Ni 10.5588550395 14.0784733860 3.5196183465
Ni 10.5588550395 15.8382825593 5.2794275198
Ni 12.3186642128 14.0784733860 5.2794275198
Ni 12.3186642128 15.8382825593 3.5196183465
Ni 10.5588550395 14.0784733860 7.0392366930
Ni 10.5588550395 15.8382825593 8.7990458663
Ni 12.3186642128 14.0784733860 8.7990458663
Ni 12.3186642128 15.8382825593 7.0392366930
Ni 10.5588550395 14.0784733860 10.5588550395
Ni 10.5588550395 15.8382825593 12.3186642128
Ni 12.3186642128 14.0784733860 12.3186642128
Ni 12.3186642128 15.8382825593 10.5588550395
Ni 10.5588550395 14.0784733860 14.0784733860
Ni 10.5588550395 15.8382825593 15.8382825593
Ni 12.3186642128 14.0784733860 15.8382825593
Ni 12.3186642128 15.8382825593 14.0784733860
Ni 10.5588550395 14.0784733860 17.5980917325
Ni 10.5588550395 15.8382825593 19.3579009058
Ni 12.3186642128 14.0784733860 19.3579009058
Ni 12.3186642128 15.8382825593 17.5980917325
Ni 10.5588550395 14.0784733860 21.1177100790
Ni 10.5588550395 15.8382825593 22.8775192523
Ni 12.3186642128 14.0784733860 22.8775192523
Ni 12.3186642128 15.8382825593 21.1177100790
Ni 10.5588550395 14.0784733860 24.6373284255
Ni 10.5588550395 15.8382825593 26.3971375988
Ni 12.3186642128 14.0784733860 26.3971375988
Ni 12.3186642128 15.8382825593 24.6373284255
Ni 10.5588550395 17.5980917325 0.0000000000
Ni 10.5588550395 19.3579009058 1.7598091733
Ni 12.3186642128 17.5980917325 1.7598091733
Ni 12.3186642128 19.3579009058 0.0000000000
Ni 10.5588550395 17.5980917325 3.5196183465
Ni 10.5588550395 19.3579009058 5.2794275198
Ni 12.3186642128 17.5980917325 5.2794275198
Ni 12.3186642128 19.3579009058 3.5196183465
Ni 10.5588550395 17.5980917325 7.0392366930
Ni 10.5588550395 19.3579009058 8.7990458663
Ni 12.3186642128 17.5980917325 8.7990458663
Ni 12.3186642128 19.3579009058 7.0392366930
Ni 10.5588550395 17.5980917325 10.5588550395
Ni 10.5588550395 19.3579009058 12.3186642128
Ni 12.3186642128 17.5980917325 12.3186642128
Ni 12.3186642128 19.3579009058 10.5588550395
Ni 10.5588550395 17.5980917325 14.0784733860
Ni 10.5588550395 19.3579009058 15.8382825593
Ni 12.3186642128 17.5980917325 15.8382825593
Ni 12.3186642128 19.3579009058 14.0784733860
Ni 10.5588550395 17.5980917325 17.5980917325
Ni 10.5588550395 19.3579009058 19.3579009058
Ni 12.3186642128 17.5980917325 19.3579009058
Ni 12.3186642128 19.3579009058 17.5980917325
Ni 10.5588550395 17.5980917325 21.1177100790
Ni 10.5588550395 19.3579009058 22.8775192523
Ni 12.3186642128 17.5980917325 22.8775192523
Ni 12.3186642128 19.3579009058 21.1177100790
Ni 10.5588550395 17.5980917325 24.6373284255
Ni 10.5588550395 19.3579009058 26.3971375988
Ni 12.3186642128 17.5980917325 26.3971375988
Ni 12.3186642128 19.3579009058 24.6373284255
Ni 10.5588550395 21.1177100790 0.0000000000
Ni 10.5588550395 22.8775192523 1.7598091733
Ni 12.3186642128 21.1177100790 1.7598091733
Ni 12.3186642128 22.8775192523 0.0000000000
Ni 10.5588550395 21.1177100790 3.5196183465
Ni 10.5588550395 22.8775192523 5.2794275198
Ni 12.3186642128 21.1177100790 5.2794275198
Ni 12.3186642128 22.8775192523 3.5196183465
Ni 10.5588550395 21.1177100790 7.0392366930
Ni 10.5588550395 22.8775192523 8.7990458663
Ni 12.3186642128 21.1177100790 8.7990458663
Ni 12.3186642128 22.8775192523 7.0392366930
Ni 10.5588550395 21.1177100790 10.5588550395
Ni 10.5588550395 22.8775192523 12.3186642128
Ni 12.3186642128 21.1177100790 12.3186642128
Ni 12.3186642128 22.8775192523 10.5588550395
Ni 10.5588550395 21.1177100790 14.0784733860
Ni 10.5588550395 22.8775192523 15.8382825593
Ni 12.3186642128 21.1177100790 15.8382825593
Ni 12.3186642128 22.8775192523 14.0784733860
Ni 10.5588550395 21.1177100790 17.5980917325
Ni 10.5588550395 22.8775192523 19.3579009058
Ni 12.3186642128 21.1177100790 19.3579009058
Ni 12.3186642128 22.8775192523 17.5980917325
Ni 10.5588550395 21.1177100790 21.1177100790
Ni 10.5588550395 22.8775192523 22.8775192523
Ni 12.3186642128 21.1177100790 22.8775192523
Ni 12.3186642128 22.8775192523 21.1177100790
Ni 10.5588550395 21.1177100790 24.6373284255
Ni 10.5588550395 22.8775192523 26.3971375988
Ni 12.3186642128 21.1177100790 26.3971375988
Ni 12.3186642128 22.8775192523 24.6373284255
Ni 10.5588550395 24.6373284255 0.0000000000
Ni 10.5588550395 26.3971375988 1.7598091733
Ni 12.3186642128 24.6373284255 1.7598091733
Ni 12.3186642128 26.3971375988 0.0000000000
Ni 10.5588550395 24.6373284255 3.5196183465
Ni 10.5588550395 26.3971375988 5.2794275198
Ni 12.3186642128 24.6373284255 5.2794275198
Ni 12.3186642128 26.3971375988 3.5196183465
Ni 10.5588550395 24.6373284255 7.0392366930
Ni 10.5588550395 26.3971375988 8.7990458663
Ni 12.3186642128 24.6373284255 8.7990458663
Ni 12.3186642128 26.3971375988 7.0392366930
Ni 10.5588550395 24.6373284255 10.5588550395
Ni 10.5588550395 26.3971375988 12.3186642128
Ni 12.3186642128 24.6373284255 12.3186642128
Ni 12.3186642128 26.3971375988 10.5588550395
Ni 10.5588550395 24.6373284255 14.0784733860
Ni 10.5588550395 26.3971375988 15.8382825593
Ni 12.3186642128 24.6373284255 15.8382825593
Ni 12.3186642128 26.3971375988 14.0784733860
Ni 10.5588550395 24.6373284255 17.5980917325
Ni 10.5588550395 26.3971375988 19.3579009058
Ni 12.3186642128 24.6373284255 19.3579009058
Ni 12.3186642128 26.3971375988 17.5980917325
Ni 10.5588550395 24.6373284255 21.1177100790
Ni 10.5588550395 26.3971375988 22.8775192523
Ni 12.3186642128 24.6373284255 22.8775192523
Ni 12.3186642128 26.3971375988 21.1177100790
Ni 10.5588550395 24.6373284255 24.6373284255
Ni 10.5588550395 26.3971375988 26.3971375988
Ni 12.3186642128 24.6373284255 26.3971375988
Ni 12.3186642128 26.3971375988 24.6373284255
Ni 14.0784733860 0.0000000000 0.0000000000
Ni 14.0784733860 1.7598091733 1.7598091733
Ni 15.8382825593 0.0000000000 1.7598091733
Ni 15.8382825593 1.7598091733 0.0000000000
Ni 14.0784733860 0.0000000000 3.5196183465
Ni 14.0784733860 1.7598091733 5.2794275198
Ni 15.8382825593 0.0000000000 5.2794275198
Ni 15.8382825593 1.7598091733 3.5196183465
Ni 14.0784733860 0.0000000000 7.0392366930
Ni 14.0784733860 1.7598091733 8.7990458663
Ni 15.8382825593 0.0000000000 8.7990458663
Ni 15.8382825593 1.7598091733 7.0392366930
Ni 14.0784733860 0.0000000000 10.5588550395
Ni 14.0784733860 1.7598091733 12.3186642128
Ni 15.8382825593 0.0000000000 12.3186642128
Ni 15.8382825593 1.7598091733 10.5588550395
Ni 14.0784733860 0.0000000000 14.0784733860
Ni 14.0784733860 1.7598091733 15.8382825593
Ni 15.8382825593 0.0000000000 15.8382825593
Ni 15.8382825593 1.7598091733 14.0784733860
Ni 14.0784733860 0.0000000000 17.5980917325
Ni 14.0784733860 1.7598091733 19.3579009058
Ni 15.8382825593 0.0000000000 19.3579009058
Ni 15.8382825593 1.7598091733 17.5980917325
Ni 14.0784733860 0.0000000000 21.1177100790
Ni 14.0784733860 1.7598091733 22.8775192523
Ni 15.8382825593 0.0000000000 22.8775192523
Ni 15.8382825593 1.7598091733 21.1177100790
Ni 14.0784733860 0.0000000000 24.6373284255
Ni 14.0784733860 1.7598091733 26.3971375988
Ni 15.8382825593 0.0000000000 26.3971375988
Ni 15.8382825593 1.7598091733 24.6373284255
Ni 14.0784733860 3.5196183465 0.0000000000
Ni 14.0784733860 5.2794275198 1.7598091733
Ni 15.8382825593 3.5196183465 1.7598091733
Ni 15.8382825593 5.2794275198 0.0000000000
Ni 14.0784733860 3.5196183465 3.5196183465
Ni 14.0784733860 5.2794275198 5.2794275198
Ni 15.8382825593 3.5196183465 5.2794275198
Ni 15.8382825593 5.2794275198 3.5196183465
Ni 14.0784733860 3.5196183465 7.0392366930
Ni 14.0784733860 5.2794275198 8.7990458663
Ni 15.8382825593 3.5196183465 8.7990458663
Ni 15.8382825593 5.2794275198 7.0392366930
Ni 14.0784733860 3.5196183465 10.5588550395
Ni 14.0784733860 5.2794275198 12.3186642128
Ni 15.8382825593 3.5196183465 12.3186642128
Ni 15.8382825593 5.2794275198 10.5588550395
Ni 14.0784733860 3.5196183465 14.0784733860
Ni 14.0784733860 5.2794275198 15.8382825593
Ni 15.8382825593 3.5196183465 15.8382825593
Ni 15.8382825593 5.2794275198 14.0784733860
Ni 14.0784733860 3.5196183465 17.5980917325
Ni 14.0784733860 5.2794275198 19.3579009058
Ni 15.8382825593 3.5196183465 19.3579009058
Ni 15.8382825593 5.2794275198 17.5980917325
Ni 14.0784733860 3.5196183465 21.1177100790
Ni 14.0784733860 5.2794275198 22.8775192523
Ni 15.8382825593 3.5196183465 22.8775192523
Ni 15.8382825593 5.2794275198 21.1177100790
Ni 14.0784733860 3.5196183465 24.6373284255
Ni 14.0784733860 5.2794275198 26.3971375988
Ni 15.8382825593 3.5196183465 26.3971375988
Ni 15.8382825593 5.2794275198 24.6373284255
Ni 14.0784733860 7.0392366930 0.0000000000
Ni 14.0784733860 8.7990458663 1.7598091733
Ni 15.8382825593 7.0392366930 1.7598091733
Ni 15.8382825593 8.7990458663 0.0000000000
Ni 14.0784733860 7.0392366930 3.5196183465
Ni 14.0784733860 8.7990458663 5.2794275198
Ni 15.8382825593 7.0392366930 5.2794275198
Ni 15.8382825593 8.7990458663 3.5196183465
Ni 14.0784733860 7.0392366930 7.0392366930
Ni 14.0784733860 8.7990458663 8.7990458663
Ni 15.8382825593 7.0392366930 8.7990458663
Ni 15.8382825593 8.7990458663 7.0392366930
Ni 14.0784733860 7.0392366930 10.5588550395
Ni 14.0784733860 8.7990458663 12.3186642128
Ni 15.8382825593 7.0392366930 12.3186642128
Ni 15.8382825593 8.7990458663 10.5588550395
Ni 14.0784733860 7.0392366930 14.0784733860
Ni 14.0784733860 8.7990458663 15.8382825593
Ni 15.8382825593 7.0392366930 15.8382825593
Ni 15.8382825593 8.7990458663 14.0784733860
Ni 14.0784733860 7.0392366930 17.5980917325
Ni 14.0784733860 8.7990458663 19.3579009058
Ni 15.8382825593 7.0392366930 19.3579009058
Ni 15.8382825593 8.7990458663 17.5980917325
Ni 14.0784733860 7.0392366930 21.1177100790
Ni 14.0784733860 8.7990458663 22.8775192523
Ni 15.8382825593 7.0392366930 22.8775192523
Ni 15.8382825593 8.7990458663 21.1177100790
Ni 14.0784733860 7.0392366930 24.6373284255
Ni 14.0784733860 8.7990458663 26.3971375988
Ni 15.8382825593 7.0392366930 26.3971375988
Ni 15.8382825593 8.7990458663 24.6373284255
Ni 14.0784733860 10.5588550395 0.0000000000
Ni 14.0784733860 12.3186642128 1.7598091733
Ni 15.8382825593 10.5588550395 1.7598091733
Ni 15.8382825593 12.3186642128 0.0000000000
Ni 14.0784733860 10.5588550395 3.5196183465
Ni 14.0784733860 12.3186642128 5.2794275198
Ni 15.8382825593 10.5588550395 5.2794275198
Ni 15.8382825593 12.3186642128 3.5196183465
Ni 14.0784733860 10.5588550395 7.0392366930
Ni 14.0784733860 12.3186642128 8.7990458663
Ni 15.8382825593 10.5588550395 8.7990458663
Ni 15.8382825593 12.3186642128 7.0392366930
Ni 14.0784733860 10.5588550395 10.5588550395
Ni 14.0784733860 12.3186642128 12.3186642128
Ni 15.8382825593 10.5588550395 12.3186642128
Ni 15.8382825593 12.3186642128 10.5588550395
Ni 14.0784733860 10.5588550395 14.0784733860
Ni 14.0784733860 12.3186642128 15.8382825593
Ni 15.8382825593 10.5588550395 15.8382825593
Ni 15.8382825593 12.3186642128 14.0784733860
Ni 14.0784733860 10.5588550395 17.5980917325
Ni 14.0784733860 12.3186642128 19.3579009058
Ni 15.8382825593 10.5588550395 19.3579009058
Ni 15.8382825593 12.3186642128 17.5980917325
Ni 14.0784733860 10.5588550395 21.1177100790
Ni 14.0784733860 12.3186642128 22.8775192523
Ni 15.8382825593 10.5588550395 22.8775192523
Ni 15.8382825593 12.3186642128 21.1177100790
Ni 14.0784733860 10.5588550395 24.6373284255
Ni 14.0784733860 12.3186642128 26.3971375988
Ni 15.8382825593 10.5588550395 26.3971375988
Ni 15.8382825593 12.3186642128 24.6373284255
Ni 14.0784733860 14.0784733860 0.0000000000
Ni 14.0784733860 15.8382825593 1.7598091733
Ni 15.8382825593 14.0784733860 1.7598091733
Ni 15.8382825593 15.8382825593 0.0000000000
Ni 14.0784733860 14.0784733860 3.5196183465
Ni 14.0784733860 15.8382825593 5.2794275198
Ni 15.8382825593 14.0784733860 5.2794275198
Ni 15.8382825593 15.8382825593 3.5196183465
Ni 14.0784733860 14.0784733860 7.0392366930
Ni 14.0784733860 15.8382825593 8.7990458663
Ni 15.8382825593 14.0784733860 8.7990458663
Ni 15.8382825593 15.8382825593 7.0392366930
Ni 14.0784733860 14.0784733860 10.5588550395
Ni 14.0784733860 15.8382825593 12.3186642128
Ni 15.8382825593 14.0784733860 12.3186642128
Ni 15.8382825593 15.8382825593 10.5588550395
Ni 14.0784733860 14.0784733860 14.0784733860
Ni 14.0784733860 15.8382825593 15.8382825593
Ni 15.8382825593 14.0784733860 15.8382825593
Ni 15.8382825593 15.8382825593 14.0784733860
Ni 14.0784733860 14.0784733860 17.5980917325
Ni 14.0784733860 15.8382825593 19.3579009058
Ni 15.8382825593 14.0784733860 19.3579009058
Ni 15.8382825593 15.8382825593 17.5980917325
Ni 14.0784733860 14.0784733860 21.1177100790
Ni 14.0784733860 15.8382825593 22.8775192523
Ni 15.8382825593 14.0784733860 22.8775192523
Ni 15.8382825593 15.8382825593 21.1177100790
Ni 14.0784733860 14.0784733860 24.6373284255
Ni 14.0784733860 15.8382825593 26.3971375988
Ni 15.8382825593 14.0784733860 26.3971375988
Ni 15.8382825593 15.8382825593 24.6373284255
Ni 14.0784733860 17.5980917325 0.0000000000
Ni 14.0784733860 19.3579009058 1.7598091733
Ni 15.8382825593 17.5980917325 1.7598091733
Ni 15.8382825593 19.3579009058 0.0000000000
Ni 14.0784733860 17.5980917325 3.5196183465
Ni 14.0784733860 19.3579009058 5.2794275198
Ni 15.8382825593 17.5980917325 5.2794275198
Ni 15.8382825593 19.3579009058 3.5196183465
Ni 14.0784733860 17.5980917325 7.0392366930
Ni 14.0784733860 19.3579009058 8.7990458663
Ni 15.8382825593 17.5980917325 8.7990458663
Ni 15.8382825593 19.3579009058 7.0392366930
Ni 14.0784733860 17.5980917325 10.5588550395
Ni 14.0784733860 19.3579009058 12.3186642128
Ni 15.8382825593 17.5980917325 12.3186642128
Ni 15.8382825593 19.3579009058 10.5588550395
Ni 14.0784733860 17.5980917325 14.0784733860
Ni 14.0784733860 19.3579009058 15.8382825593
Ni 15.8382825593 17.5980917325 15.8382825593
Ni 15.8382825593 19.3579009058 14.0784733860
Ni 14.0784733860 17.5980917325 17.5980917325
Ni 14.0784733860 19.3579009058 19.3579009058
Ni 15.8382825593 17.5980917325 19.3579009058
Ni 15.8382825593 19.3579009058 17.5980917325
Ni 14.0784733860 17.5980917325 21.1177100790
Ni 14.0784733860 19.3579009058 22.8775192523
Ni 15.8382825593 17.5980917325 22.8775192523
Ni 15.8382825593 19.3579009058 21.1177100790
Ni 14.0784733860 17.5980917325 24.6373284255
Ni 14.0784733860 19.3579009058 26.3971375988
Ni 15.8382825593 17.5980917325 26.3971375988
Ni 15.8382825593 19.3579009058 24.6373284255
Ni 14.0784733860 21.1177100790 0.0000000000
Ni 14.0784733860 22.8775192523 1.7598091733
Ni 15.8382825593 21.1177100790 1.7598091733
Ni 15.8382825593 22.8775192523 0.0000000000
Ni 14.0784733860 21.1177100790 3.5196183465
Ni 14.0784733860 22.8775192523 5.2794275198
Ni 15.8382825593 21.1177100790 5.2794275198
Ni 15.8382825593 22.8775192523 3.5196183465
Ni 14.0784733860 21.1177100790 7.0392366930
Ni 14.0784733860 22.8775192523 8.7990458663
Ni 15.8382825593 21.1177100790 8.7990458663
Ni 15.8382825593 22.8775192523 7.0392366930
Ni 14.0784733860 21.1177100790 10.5588550395
Ni 14.0784733860 22.8775192523 12.3186642128
Ni 15.8382825593 21.1177100790 12.3186642128
Ni 15.8382825593 22.8775192523 10.5588550395
Ni 14.0784733860 21.1177100790 14.0784733860
Ni 14.0784733860 22.8775192523 15.8382825593
Ni 15.8382825593 21.1177100790 15.8382825593
Ni 15.8382825593 22.8775192523 14.0784733860
Ni 14.0784733860 21.1177100790 17.5980917325
Ni 14.0784733860 22.8775192523 19.3579009058
Ni 15.8382825593 21.1177100790 19.3579009058
Ni 15.8382825593 22.8775192523 17.5980917325
Ni 14.0784733860 21.1177100790 21.1177100790
Ni 14.0784733860 22.8775192523 22.8775192523
Ni 15.8382825593 21.1177100790 22.8775192523
Ni 15.8382825593 22.8775192523 21.1177100790
Ni 14.0784733860 21.1177100790 24.6373284255
Ni 14.0784733860 22.8775192523 26.3971375988
Ni 15.8382825593 21.1177100790 26.3971375988
Ni 15.8382825593 22.8775192523 24.6373284255
Ni 14.0784733860 24.6373284255 0.0000000000
Ni 14.0784733860 26.3971375988 1.7598091733
Ni 15.8382825593 24.6373284255 1.7598091733
Ni 15.8382825593 26.3971375988 0.0000000000
Ni 14.0784733860 24.6373284255 3.5196183465
Ni 14.0784733860 26.3971375988 5.2794275198
Ni 15.8382825593 24.6373284255 5.2794275198
Ni 15.8382825593 26.3971375988 3.5196183465
Ni 14.0784733860 24.6373284255 7.0392366930
Ni 14.0784733860 26.3971375988 8.7990458663
Ni 15.8382825593 24.6373284255 8.7990458663
Ni 15.8382825593 26.3971375988 7.0392366930
Ni 14.0784733860 24.6373284255 10.5588550395
Ni 14.0784733860 26.3971375988 12.3186642128
Ni 15.8382825593 24.6373284255 12.3186642128
Ni 15.8382825593 26.3971375988 10.5588550395
Ni 14.0784733860 24.6373284255 14.0784733860
Ni 14.0784733860 26.3971375988 15.8382825593
Ni 15.8382825593 24.6373284255 15.8382825593
Ni 15.8382825593 26.3971375988 14.0784733860
Ni 14.0784733860 24.6373284255 17.5980917325
Ni 14.0784733860 26.3971375988 19.3579009058
Ni 15.8382825593 24.6373284255 19.3579009058
Ni 15.8382825593 26.3971375988 17.5980917325
Ni 14.0784733860 24.6373284255 21.1177100790
Ni 14.0784733860 26.3971375988 22.8775192523
Ni 15.8382825593 24.6373284255 22.8775192523
Ni 15.8382825593 26.3971375988 21.1177100790
Ni 14.0784733860 24.6373284255 24.6373284255
Ni 14.0784733860 26.3971375988 26.3971375988
Ni 15.8382825593 24.6373284255 26.3971375988
Ni 15.8382825593 26.3971375988 24.6373284255
Ni 17.5980917325 0.0000000000 0.0000000000
Ni 17.5980917325 1.7598091733 1.7598091733
Ni 19.3579009058 0.0000000000 1.7598091733
Ni 19.3579009058 1.7598091733 0.0000000000
Ni 17.5980917325 0.0000000000 3.5196183465
Ni 17.5980917325 1.7598091733 5.2794275198
Ni 19.3579009058 0.0000000000 5.2794275198
Ni 19.3579009058 1.7598091733 3.5196183465
Ni 17.5980917325 0.0000000000 7.0392366930
Ni 17.5980917325 1.7598091733 8.7990458663
Ni 19.3579009058 0.0000000000 8.7990458663
Ni 19.3579009058 1.7598091733 7.0392366930
Ni 17.5980917325 0.0000000000 10.5588550395
Ni 17.5980917325 1.7598091733 12.3186642128
Ni 19.3579009058 0.0000000000 12.3186642128
Ni 19.3579009058 1.7598091733 10.5588550395
Ni 17.5980917325 0.0000000000 14.0784733860
Ni 17.5980917325 1.7598091733 15.8382825593
Ni 19.3579009058 0.0000000000 15.8382825593
Ni 19.3579009058 1.7598091733 14.0784733860
Ni 17.5980917325 0.0000000000 17.5980917325
Ni 17.5980917325 1.7598091733 19.3579009058
Ni 19.3579009058 0.0000000000 19.3579009058
Ni 19.3579009058 1.7598091733 17.5980917325
Ni 17.5980917325 0.0000000000 21.1177100790
Ni 17.5980917325 1.7598091733 22.8775192523
Ni 19.3579009058 0.0000000000 22.8775192523
Ni 19.3579009058 1.7598091733 21.1177100790
Ni 17.5980917325 0.0000000000 24.6373284255
Ni 17.5980917325 1.7598091733 26.3971375988
Ni 19.3579009058 0.0000000000 26.3971375988
Ni 19.3579009058 1.7598091733 24.6373284255
Ni 17.5980917325 3.5196183465 0.0000000000
Ni 17.5980917325 5.2794275198 1.7598091733
Ni 19.3579009058 3.5196183465 1.7598091733
Ni 19.3579009058 5.2794275198 0.0000000000
Ni 17.5980917325 3.5196183465 3.5196183465
Ni 17.5980917325 5.2794275198 5.2794275198
Ni 19.3579009058 3.5196183465 5.2794275198
Ni 19.3579009058 5.2794275198 3.5196183465
Ni 17.5980917325 3.5196183465 7.0392366930
Ni 17.5980917325 5.2794275198 8.7990458663
Ni 19.3579009058 3.5196183465 8.7990458663
Ni 19.3579009058 5.2794275198 7.0392366930
Ni 17.5980917325 3.5196183465 10.5588550395
Ni 17.5980917325 5.2794275198 12.3186642128
Ni 19.3579009058 3.5196183465 12.3186642128
Ni 19.3579009058 5.2794275198 10.5588550395
Ni 17.5980917325 3.5196183465 14.0784733860
Ni 17.5980917325 5.2794275198 15.8382825593
Ni 19.3579009058 3.5196183465 15.8382825593
Ni 19.3579009058 5.2794275198 14.0784733860
Ni 17.5980917325 3.5196183465 17.5980917325
Ni 17.5980917325 5.2794275198 19.3579009058
Ni 19.3579009058 3.5196183465 19.3579009058
Ni 19.3579009058 5.2794275198 17.5980917325
Ni 17.5980917325 3.5196183465 21.1177100790
Ni 17.5980917325 5.2794275198 22.8775192523
Ni 19.3579009058 3.5196183465 22.8775192523
Ni 19.3579009058 5.2794275198 21.1177100790
Ni 17.5980917325 3.5196183465 24.6373284255
Ni 17.5980917325 5.2794275198 26.3971375988
Ni 19.3579009058 3.5196183465 26.3971375988
Ni 19.3579009058 5.2794275198 24.6373284255
Ni 17.5980917325 7.0392366930 0.0000000000
Ni 17.5980917325 8.7990458663 1.7598091733
Ni 19.3579009058 7.0392366930 1.7598091733
Ni 19.3579009058 8.7990458663 0.0000000000
Ni 17.5980917325 7.0392366930 3.5196183465
Ni 17.5980917325 8.7990458663 5.2794275198
Ni 19.3579009058 7.0392366930 5.2794275198
Ni 19.3579009058 8.7990458663 3.5196183465
Ni 17.5980917325 7.0392366930 7.0392366930
Ni 17.5980917325 8.7990458663 8.7990458663
Ni 19.3579009058 7.0392366930 8.7990458663
Ni 19.3579009058 8.7990458663 7.0392366930
Ni 17.5980917325 7.0392366930 10.5588550395
Ni 17.5980917325 8.7990458663 12.3186642128
Ni 19.3579009058 7.0392366930 12.3186642128
Ni 19.3579009058 8.7990458663 10.5588550395
Ni 17.5980917325 7.0392366930 14.0784733860
Ni 17.5980917325 8.7990458663 15.8382825593
Ni 19.3579009058 7.0392366930 15.8382825593
Ni 19.3579009058 8.7990458663 14.0784733860
Ni 17.5980917325 7.0392366930 17.5980917325
Ni 17.5980917325 8.7990458663 19.3579009058
Ni 19.3579009058 7.0392366930 19.3579009058
Ni 19.3579009058 8.7990458663 17.5980917325
Ni 17.5980917325 7.0392366930 21.1177100790
Ni 17.5980917325 8.7990458663 22.8775192523
Ni 19.3579009058 7.0392366930 22.8775192523
Ni 19.3579009058 8.7990458663 21.1177100790
Ni 17.5980917325 7.0392366930 24.6373284255
Ni 17.5980917325 8.7990458663 26.3971375988
Ni 19.3579009058 7.0392366930 26.3971375988
Ni 19.3579009058 8.7990458663 24.6373284255
Ni 17.5980917325 10.5588550395 0.0000000000
Ni 17.5980917325 12.3186642128 1.7598091733
Ni 19.3579009058 10.5588550395 1.7598091733
Ni 19.3579009058 12.3186642128 0.0000000000
Ni 17.5980917325 10.5588550395 3.5196183465
Ni 17.5980917325 12.3186642128 5.2794275198
Ni 19.3579009058 10.5588550395 5.2794275198
Ni 19.3579009058 12.3186642128 3.5196183465
Ni 17.5980917325 10.5588550395 7.0392366930
Ni 17.5980917325 12.3186642128 8.7990458663
Ni 19.3579009058 10.5588550395 8.7990458663
Ni 19.3579009058 12.3186642128 7.0392366930
Ni 17.5980917325 10.5588550395 10.5588550395
Ni 17.5980917325 12.3186642128 12.3186642128
Ni 19.3579009058 10.5588550395 12.3186642128
Ni 19.3579009058 12.3186642128 10.5588550395
Ni 17.5980917325 10.5588550395 14.0784733860
Ni 17.5980917325 12.3186642128 15.8382825593
Ni 19.3579009058 10.5588550395 15.8382825593
Ni 19.3579009058 12.3186642128 14.0784733860
Ni 17.5980917325 10.5588550395 17.5980917325
Ni 17.5980917325 12.3186642128 19.3579009058
Ni 19.3579009058 10.5588550395 19.3579009058
Ni 19.3579009058 12.3186642128 17.5980917325
Ni 17.5980917325 10.5588550395 21.1177100790
Ni 17.5980917325 12.3186642128 22.8775192523
Ni 19.3579009058 10.5588550395 22.8775192523
Ni 19.3579009058 12.3186642128 21.1177100790
Ni 17.5980917325 10.5588550395 24.6373284255
Ni 17.5980917325 12.3186642128 26.3971375988
Ni 19.3579009058 10.5588550395 26.3971375988
Ni 19.3579009058 12.3186642128 24.6373284255
Ni 17.5980917325 14.0784733860 0.0000000000
Ni 17.5980917325 15.8382825593 1.7598091733
Ni 19.3579009058 14.0784733860 1.7598091733
Ni 19.3579009058 15.8382825593 0.0000000000
Ni 17.5980917325 14.0784733860 3.5196183465
Ni 17.5980917325 15.8382825593 5.2794275198
Ni 19.3579009058 14.0784733860 5.2794275198
Ni 19.3579009058 15.8382825593 3.5196183465
Ni 17.5980917325 14.0784733860 7.0392366930
Ni 17.5980917325 15.8382825593 8.7990458663
Ni 19.3579009058 14.0784733860 8.7990458663
Ni 19.3579009058 15.8382825593 7.0392366930
Ni 17.5980917325 14.0784733860 10.5588550395
Ni 17.5980917325 15.8382825593 12.3186642128
Ni 19.3579009058 14.0784733860 12.3186642128
Ni 19.3579009058 15.8382825593 10.5588550395
Ni 17.5980917325 14.0784733860 14.0784733860
Ni 17.5980917325 15.8382825593 15.8382825593
Ni 19.3579009058 14.0784733860 15.8382825593
Ni 19.3579009058 15.8382825593 14.0784733860
Ni 17.5980917325 14.0784733860 17.5980917325
Ni 17.5980917325 15.8382825593 19.3579009058
Ni 19.3579009058 14.0784733860 19.3579009058
Ni 19.3579009058 15.8382825593 17.5980917325
Ni 17.5980917325 14.0784733860 21.1177100790
Ni 17.5980917325 15.8382825593 22.8775192523
Ni 19.3579009058 14.0784733860 22.8775192523
Ni 19.3579009058 15.8382825593 21.1177100790
Ni 17.5980917325 14.0784733860 24.6373284255
Ni 17.5980917325 15.8382825593 26.3971375988
Ni 19.3579009058 14.0784733860 26.3971375988
Ni 19.3579009058 15.8382825593 24.6373284255
Ni 17.5980917325 17.5980917325 0.0000000000
Ni 17.5980917325 19.3579009058 1.7598091733
Ni 19.3579009058 17.5980917325 1.7598091733
Ni 19.3579009058 19.3579009058 0.0000000000
Ni 17.5980917325 17.5980917325 3.5196183465
Ni 17.5980917325 19.3579009058 5.2794275198
Ni 19.3579009058 17.5980917325 5.2794275198
Ni 19.3579009058 19.3579009058 3.5196183465
Ni 17.5980917325 17.5980917325 7.0392366930
Ni 17.5980917325 19.3579009058 8.7990458663
Ni 19.3579009058 17.5980917325 8.7990458663
Ni 19.3579009058 19.3579009058 7.0392366930
Ni 17.5980917325 17.5980917325 10.5588550395
Ni 17.5980917325 19.3579009058 12.3186642128
Ni 19.3579009058 17.5980917325 12.3186642128
Ni 19.3579009058 19.3579009058 10.5588550395
Ni 17.5980917325 17.5980917325 14.0784733860
Ni 17.5980917325 19.3579009058 15.8382825593
Ni 19.3579009058 17.5980917325 15.8382825593
Ni 19.3579009058 19.3579009058 14.0784733860
Ni 17.5980917325 17.5980917325 17.5980917325
Ni 17.5980917325 19.3579009058 19.3579009058
Ni 19.3579009058 17.5980917325 19.3579009058
Ni 19.3579009058 19.3579009058 17.5980917325
Ni 17.5980917325 17.5980917325 21.1177100790
Ni 17.5980917325 19.3579009058 22.8775192523
Ni 19.3579009058 17.5980917325 22.8775192523
Ni 19.3579009058 19.3579009058 21.1177100790
Ni 17.5980917325 17.5980917325 24.6373284255
Ni 17.5980917325 19.3579009058 26.3971375988
Ni 19.3579009058 17.5980917325 26.3971375988
Ni 19.3579009058 19.3579009058 24.6373284255
Ni 17.5980917325 21.1177100790 0.0000000000
Ni 17.5980917325 22.8775192523 1.7598091733
Ni 19.3579009058 21.1177100790 1.7598091733
Ni 19.3579009058 22.8775192523 0.0000000000
Ni 17.5980917325 21.1177100790 3.5196183465
Ni 17.5980917325 22.8775192523 5.2794275198
Ni 19.3579009058 21.1177100790 5.2794275198
Ni 19.3579009058 22.8775192523 3.5196183465
Ni 17.5980917325 21.1177100790 7.0392366930
Ni 17.5980917325 22.8775192523 8.7990458663
Ni 19.3579009058 21.1177100790 8.7990458663
Ni 19.3579009058 22.8775192523 7.0392366930
Ni 17.5980917325 21.1177100790 10.5588550395
Ni 17.5980917325 22.8775192523 12.3186642128
Ni 19.3579009058 21.1177100790 12.3186642128
Ni 19.3579009058 22.8775192523 10.5588550395
Ni 17.5980917325 21.1177100790 14.0784733860
Ni 17.5980917325 22.8775192523 15.8382825593
Ni 19.3579009058 21.1177100790 15.8382825593
Ni 19.3579009058 22.8775192523 14.0784733860
Ni 17.5980917325 21.1177100790 17.5980917325
Ni 17.5980917325 22.8775192523 19.3579009058
Ni 19.3579009058 21.1177100790 19.3579009058
Ni 19.3579009058 22.8775192523 17.5980917325
Ni 17.5980917325 21.1177100790 21.1177100790
Ni 17.5980917325 22.8775192523 22.8775192523
Ni 19.3579009058 21.1177100790 22.8775192523
Ni 19.3579009058 22.8775192523 21.1177100790
Ni 17.5980917325 21.1177100790 24.6373284255
Ni 17.5980917325 22.8775192523 26.3971375988
Ni 19.3579009058 21.1177100790 26.3971375988
Ni 19.3579009058 22.8775192523 24.6373284255
Ni 17.5980917325 24.6373284255 0.0000000000
Ni 17.5980917325 26.3971375988 1.7598091733
Ni 19.3579009058 24.6373284255 1.7598091733
Ni 19.3579009058 26.3971375988 0.0000000000
Ni 17.5980917325 24.6373284255 3.5196183465
Ni 17.5980917325 26.3971375988 5.2794275198
Ni 19.3579009058 24.6373284255 5.2794275198
Ni 19.3579009058 26.3971375988 3.5196183465
Ni 17.5980917325 24.6373284255 7.0392366930
Ni 17.5980917325 26.3971375988 8.7990458663
Ni 19.3579009058 24.6373284255 8.7990458663
Ni 19.3579009058 26.3971375988 7.0392366930
Ni 17.5980917325 24.6373284255 10.5588550395
Ni 17.5980917325 26.3971375988 12.3186642128
Ni 19.3579009058 24.6373284255 12.3186642128
Ni 19.3579009058 26.3971375988 10.5588550395
Ni 17.5980917325 24.6373284255 14.0784733860
Ni 17.5980917325 26.3971375988 15.8382825593
Ni 19.3579009058 24.6373284255 15.8382825593
Ni 19.3579009058 26.3971375988 14.0784733860
Ni 17.5980917325 24.6373284255 17.5980917325
Ni 17.5980917325 26.3971375988 19.3579009058
Ni 19.3579009058 24.6373284255 19.3579009058
Ni 19.3579009058 26.3971375988 17.5980917325
Ni 17.5980917325 24.6373284255 21.1177100790
Ni 17.5980917325 26.3971375988 22.8775192523
Ni 19.3579009058 24.6373284255 22.8775192523
Ni 19.3579009058 26.3971375988 21.1177100790
Ni 17.5980917325 24.6373284255 24.6373284255
Ni 17.5980917325 26.3971375988 26.3971375988
Ni 19.3579009058 24.6373284255 26.3971375988
Ni 19.3579009058 26.3971375988 24.6373284255
Ni 21.1177100790 0.0000000000 0.0000000000
Ni 21.1177100790 1.7598091733 1.7598091733
Ni 22.8775192523 0.0000000000 1.7598091733
Ni 22.8775192523 1.7598091733 0.0000000000
Ni 21.1177100790 0.0000000000 3.5196183465
Ni 21.1177100790 1.7598091733 5.2794275198
Ni 22.8775192523 0.0000000000 5.2794275198
Ni 22.8775192523 1.7598091733 3.5196183465
Ni 21.1177100790 0.0000000000 7.0392366930
Ni 21.1177100790 1.7598091733 8.7990458663
Ni 22.8775192523 0.0000000000 8.7990458663
Ni 22.8775192523 1.7598091733 7.0392366930
Ni 21.1177100790 0.0000000000 10.5588550395
Ni 21.1177100790 1.7598091733 12.3186642128
Ni 22.8775192523 0.0000000000 12.3186642128
Ni 22.8775192523 1.7598091733 10.5588550395
Ni 21.1177100790 0.0000000000 14.0784733860
Ni 21.1177100790 1.7598091733 15.8382825593
Ni 22.8775192523 0.0000000000 15.8382825593
Ni 22.8775192523 1.7598091733 14.0784733860
Ni 21.1177100790 0.0000000000 17.5980917325
Ni 21.1177100790 1.7598091733 19.3579009058
Ni 22.8775192523 0.0000000000 19.3579009058
Ni 22.8775192523 1.7598091733 17.5980917325
Ni 21.1177100790 0.0000000000 21.1177100790
Ni 21.1177100790 1.7598091733 22.8775192523
Ni 22.8775192523 0.0000000000 22.8775192523
Ni 22.8775192523 1.7598091733 21.1177100790
Ni 21.1177100790 0.0000000000 24.6373284255
Ni 21.1177100790 1.7598091733 26.3971375988
Ni 22.8775192523 0.0000000000 26.3971375988
Ni 22.8775192523 1.7598091733 24.6373284255
Ni 21.1177100790 3.5196183465 0.0000000000
Ni 21.1177100790 5.2794275198 1.7598091733
Ni 22.8775192523 3.5196183465 1.7598091733
Ni 22.8775192523 5.2794275198 0.0000000000
Ni 21.1177100790 3.5196183465 3.5196183465
Ni 21.1177100790 5.2794275198 5.2794275198
Ni 22.8775192523 3.5196183465 5.2794275198
Ni 22.8775192523 5.2794275198 3.5196183465
Ni 21.1177100790 3.5196183465 7.0392366930
Ni 21.1177100790 5.2794275198 8.7990458663
Ni 22.8775192523 3.5196183465 8.7990458663
Ni 22.8775192523 5.2794275198 7.0392366930
Ni 21.1177100790 3.5196183465 10.5588550395
Ni 21.1177100790 5.2794275198 12.3186642128
Ni 22.8775192523 3.5196183465 12.3186642128
Ni 22.8775192523 5.2794275198 10.5588550395
Ni 21.1177100790 3.5196183465 14.0784733860
Ni 21.1177100790 5.2794275198 15.8382825593
Ni 22.8775192523 3.5196183465 15.8382825593
Ni 22.8775192523 5.2794275198 14.0784733860
Ni 21.1177100790 3.5196183465 17.5980917325
Ni 21.1177100790 5.2794275198 19.3579009058
Ni 22.8775192523 3.5196183465 19.3579009058
Ni 22.8775192523 5.2794275198 17.5980917325
Ni 21.1177100790 3.5196183465 21.1177100790
Ni 21.1177100790 5.2794275198 22.8775192523
Ni 22.8775192523 3.5196183465 22.8775192523
Ni 22.8775192523 5.2794275198 21.1177100790
Ni 21.1177100790 3.5196183465 24.6373284255
Ni 21.1177100790 5.2794275198 26.3971375988
Ni 22.8775192523 3.5196183465 26.3971375988
Ni 22.8775192523 5.2794275198 24.6373284255
Ni 21.1177100790 7.0392366930 0.0000000000
Ni 21.1177100790 8.7990458663 1.7598091733
Ni 22.8775192523 7.0392366930 1.7598091733
Ni 22.8775192523 8.7990458663 0.0000000000
Ni 21.1177100790 7.0392366930 3.5196183465
Ni 21.1177100790 8.7990458663 5.2794275198
Ni 22.8775192523 7.0392366930 5.2794275198
Ni 22.8775192523 8.7990458663 3.5196183465
Ni 21.1177100790 7.0392366930 7.0392366930
Ni 21.1177100790 8.7990458663 8.7990458663
Ni 22.8775192523 7.0392366930 8.7990458663
Ni 22.8775192523 8.7990458663 7.0392366930
Ni 21.1177100790 7.0392366930 10.5588550395
Ni 21.1177100790 8.7990458663 12.3186642128
Ni 22.8775192523 7.0392366930 12.3186642128
Ni 22.8775192523 8.7990458663 10.5588550395
Ni 21.1177100790 7.0392366930 14.0784733860
Ni 21.1177100790 8.7990458663 15.8382825593
Ni 22.8775192523 7.0392366930 15.8382825593
Ni 22.8775192523 8.7990458663 14.0784733860
Ni 21.1177100790 7.0392366930 17.5980917325
Ni 21.1177100790 8.7990458663 19.3579009058
Ni 22.8775192523 7.0392366930 19.3579009058
Ni 22.8775192523 8.7990458663 17.5980917325
Ni 21.1177100790 7.0392366930 21.1177100790
Ni 21.1177100790 8.7990458663 22.8775192523
Ni 22.8775192523 7.0392366930 22.8775192523
Ni 22.8775192523 8.7990458663 21.1177100790
Ni 21.1177100790 7.0392366930 24.6373284255
Ni 21.1177100790 8.7990458663 26.3971375988
Ni 22.8775192523 7.0392366930 26.3971375988
Ni 22.8775192523 8.7990458663 24.6373284255
Ni 21.1177100790 10.5588550395 0.0000000000
Ni 21.1177100790 12.3186642128 1.7598091733
Ni 22.8775192523 10.5588550395 1.7598091733
Ni 22.8775192523 12.3186642128 0.0000000000
Ni 21.1177100790 10.5588550395 3.5196183465
Ni 21.1177100790 12.3186642128 5.2794275198
Ni 22.8775192523 10.5588550395 5.2794275198
Ni 22.8775192523 12.3186642128 3.5196183465
Ni 21.1177100790 10.5588550395 7.0392366930
Ni 21.1177100790 12.3186642128 8.7990458663
Ni 22.8775192523 10.5588550395 8.7990458663
Ni 22.8775192523 12.3186642128 7.0392366930
Ni 21.1177100790 10.5588550395 10.5588550395
Ni 21.1177100790 12.3186642128 12.3186642128
Ni 22.8775192523 10.5588550395 12.3186642128
Ni 22.8775192523 12.3186642128 10.5588550395
Ni 21.1177100790 10.5588550395 14.0784733860
Ni 21.1177100790 12.3186642128 15.8382825593
Ni 22.8775192523 10.5588550395 15.8382825593
Ni 22.8775192523 12.3186642128 14.0784733860
Ni 21.1177100790 10.5588550395 17.5980917325
Ni 21.1177100790 12.3186642128 19.3579009058
Ni 22.8775192523 10.5588550395 19.3579009058
Ni 22.8775192523 12.3186642128 17.5980917325
Ni 21.1177100790 10.5588550395 21.1177100790
Ni 21.1177100790 12.3186642128 22.8775192523
Ni 22.8775192523 10.5588550395 22.8775192523
Ni 22.8775192523 12.3186642128 21.1177100790
Ni 21.1177100790 10.5588550395 24.6373284255
Ni 21.1177100790 12.3186642128 26.3971375988
Ni 22.8775192523 10.5588550395 26.3971375988
Ni 22.8775192523 12.3186642128 24.6373284255
Ni 21.1177100790 14.0784733860 0.0000000000
Ni 21.1177100790 15.8382825593 1.7598091733
Ni 22.8775192523 14.0784733860 1.7598091733
Ni 22.8775192523 15.8382825593 0.0000000000
Ni 21.1177100790 14.0784733860 3.5196183465
Ni 21.1177100790 15.8382825593 5.2794275198
Ni 22.8775192523 14.0784733860 5.2794275198
Ni 22.8775192523 15.8382825593 3.5196183465
Ni 21.1177100790 14.0784733860 7.0392366930
Ni 21.1177100790 15.8382825593 8.7990458663
Ni 22.8775192523 14.0784733860 8.7990458663
Ni 22.8775192523 15.8382825593 7.0392366930
Ni 21.1177100790 14.0784733860 10.5588550395
Ni 21.1177100790 15.8382825593 12.3186642128
Ni 22.8775192523 14.0784733860 12.3186642128
Ni 22.8775192523 15.8382825593 10.5588550395
Ni 21.1177100790 14.0784733860 14.0784733860
Ni 21.1177100790 15.8382825593 15.8382825593
Ni 22.8775192523 14.0784733860 15.8382825593
Ni 22.8775192523 15.8382825593 14.0784733860
Ni 21.1177100790 14.0784733860 17.5980917325
Ni 21.1177100790 15.8382825593 19.3579009058
Ni 22.8775192523 14.0784733860 19.3579009058
Ni 22.8775192523 15.8382825593 17.5980917325
Ni 21.1177100790 14.0784733860 21.1177100790
Ni 21.1177100790 15.8382825593 22.8775192523
Ni 22.8775192523 14.0784733860 22.8775192523
Ni 22.8775192523 15.8382825593 21.1177100790
Ni 21.1177100790 14.0784733860 24.6373284255
Ni 21.1177100790 15.8382825593 26.3971375988
Ni 22.8775192523 14.0784733860 26.3971375988
Ni 22.8775192523 15.8382825593 24.6373284255
Ni 21.1177100790 17.5980917325 0.0000000000
Ni 21.1177100790 19.3579009058 1.7598091733
Ni 22.8775192523 17.5980917325 1.7598091733
Ni 22.8775192523 19.3579009058 0.0000000000
Ni 21.1177100790 17.5980917325 3.5196183465
Ni 21.1177100790 19.3579009058 5.2794275198
Ni 22.8775192523 17.5980917325 5.2794275198
Ni 22.8775192523 19.3579009058 3.5196183465
Ni 21.1177100790 17.5980917325 7.0392366930
Ni 21.1177100790 19.3579009058 8.7990458663
Ni 22.8775192523 17.5980917325 8.7990458663
Ni 22.8775192523 19.3579009058 7.0392366930
Ni 21.1177100790 17.5980917325 10.5588550395
Ni 21.1177100790 19.3579009058 12.3186642128
Ni 22.8775192523 17.5980917325 12.3186642128
Ni 22.8775192523 19.3579009058 10.5588550395
Ni 21.1177100790 17.5980917325 14.0784733860
Ni 21.1177100790 19.3579009058 15.8382825593
Ni 22.8775192523 17.5980917325 15.8382825593
Ni 22.8775192523 19.3579009058 14.0784733860
Ni 21.1177100790 17.5980917325 17.5980917325
Ni 21.1177100790 19.3579009058 19.3579009058
Ni 22.8775192523 17.5980917325 19.3579009058
Ni 22.8775192523 19.3579009058 17.5980917325
Ni 21.1177100790 17.5980917325 21.1177100790
Ni 21.1177100790 19.3579009058 22.8775192523
Ni 22.8775192523 17.5980917325 22.8775192523
Ni 22.8775192523 19.3579009058 21.1177100790
Ni 21.1177100790 17.5980917325 24.6373284255
Ni 21.1177100790 19.3579009058 26.3971375988
Ni 22.8775192523 17.5980917325 26.3971375988
Ni 22.8775192523 19.3579009058 24.6373284255
Ni 21.1177100790 21.1177100790 0.0000000000
Ni 21.1177100790 22.8775192523 1.7598091733
Ni 22.8775192523 21.1177100790 1.7598091733
Ni 22.8775192523 22.8775192523 0.0000000000
Ni 21.1177100790 21.1177100790 3.5196183465
Ni 21.1177100790 22.8775192523 5.2794275198
Ni 22.8775192523 21.1177100790 5.2794275198
Ni 22.8775192523 22.8775192523 3.5196183465
Ni 21.1177100790 21.1177100790 7.0392366930
Ni 21.1177100790 22.8775192523 8.7990458663
Ni 22.8775192523 21.1177100790 8.7990458663
Ni 22.8775192523 22.8775192523 7.0392366930
Ni 21.1177100790 21.1177100790 10.5588550395
Ni 21.1177100790 22.8775192523 12.3186642128
Ni 22.8775192523 21.1177100790 12.3186642128
Ni 22.8775192523 22.8775192523 10.5588550395
Ni 21.1177100790 21.1177100790 14.0784733860
Ni 21.1177100790 22.8775192523 15.8382825593
Ni 22.8775192523 21.1177100790 15.8382825593
Ni 22.8775192523 22.8775192523 14.0784733860
Ni 21.1177100790 21.1177100790 17.5980917325
Ni 21.1177100790 22.8775192523 19.3579009058
Ni 22.8775192523 21.1177100790 19.3579009058
Ni 22.8775192523 22.8775192523 17.5980917325
Ni 21.1177100790 21.1177100790 21.1177100790
Ni 21.1177100790 22.8775192523 22.8775192523
Ni 22.8775192523 21.1177100790 22.8775192523
Ni 22.8775192523 22.8775192523 21.1177100790
Ni 21.1177100790 21.1177100790 24.6373284255
Ni 21.1177100790 22.8775192523 26.3971375988
Ni 22.8775192523 21.1177100790 26.3971375988
Ni 22.8775192523 22.8775192523 24.6373284255
Ni 21.1177100790 24.6373284255 0.0000000000
Ni 21.1177100790 26.3971375988 1.7598091733
Ni 22.8775192523 24.6373284255 1.7598091733
Ni 22.8775192523 26.3971375988 0.0000000000
Ni 21.1177100790 24.6373284255 3.5196183465
Ni 21.1177100790 26.3971375988 5.2794275198
Ni 22.8775192523 24.6373284255 5.2794275198
Ni 22.8775192523 26.3971375988 3.5196183465
Ni 21.1177100790 24.6373284255 7.0392366930
Ni 21.1177100790 26.3971375988 8.7990458663
Ni 22.8775192523 24.6373284255 8.7990458663
Ni 22.8775192523 26.3971375988 7.0392366930
Ni 21.1177100790 24.6373284255 10.5588550395
Ni 21.1177100790 26.3971375988 12.3186642128
Ni 22.8775192523 24.6373284255 12.3186642128
Ni 22.8775192523 26.3971375988 10.5588550395
Ni 21.1177100790 24.6373284255 14.0784733860
Ni 21.1177100790 26.3971375988 15.8382825593
Ni 22.8775192523 24.6373284255 15.8382825593
Ni 22.8775192523 26.3971375988 14.0784733860
Ni 21.1177100790 24.6373284255 17.5980917325
Ni 21.1177100790 26.3971375988 19.3579009058
Ni 22.8775192523 24.6373284255 19.3579009058
Ni 22.8775192523 26.3971375988 17.5980917325
Ni 21.1177100790 24.6373284255 21.1177100790
Ni 21.1177100790 26.3971375988 22.8775192523
Ni 22.8775192523 24.6373284255 22.8775192523
Ni 22.8775192523 26.3971375988 21.1177100790
Ni 21.1177100790 24.6373284255 24.6373284255
Ni 21.1177100790 26.3971375988 26.3971375988
Ni 22.8775192523 24.6373284255 26.3971375988
Ni 22.8775192523 26.3971375988 24.6373284255
Ni 24.6373284255 0.0000000000 0.0000000000
Ni 24.6373284255 1.7598091733 1.7598091733
Ni 26.3971375988 0.0000000000 1.7598091733
Ni 26.3971375988 1.7598091733 0.0000000000
Ni 24.6373284255 0.0000000000 3.5196183465
Ni 24.6373284255 1.7598091733 5.2794275198
Ni 26.3971375988 0.0000000000 5.2794275198
Ni 26.3971375988 1.7598091733 3.5196183465
Ni 24.6373284255 0.0000000000 7.0392366930
Ni 24.6373284255 1.7598091733 8.7990458663
Ni 26.3971375988 0.0000000000 8.7990458663
Ni 26.3971375988 1.7598091733 7.0392366930
Ni 24.6373284255 0.0000000000 10.5588550395
Ni 24.6373284255 1.7598091733 12.3186642128
Ni 26.3971375988 0.0000000000 12.3186642128
Ni 26.3971375988 1.7598091733 10.5588550395
Ni 24.6373284255 0.0000000000 14.0784733860
Ni 24.6373284255 1.7598091733 15.8382825593
Ni 26.3971375988 0.0000000000 15.8382825593
Ni 26.3971375988 1.7598091733 14.0784733860
Ni 24.6373284255 0.0000000000 17.5980917325
Ni 24.6373284255 1.7598091733 19.3579009058
Ni 26.3971375988 0.0000000000 19.3579009058
Ni 26.3971375988 1.7598091733 17.5980917325
Ni 24.6373284255 0.0000000000 21.1177100790
Ni 24.6373284255 1.7598091733 22.8775192523
Ni 26.3971375988 0.0000000000 22.8775192523
Ni 26.3971375988 1.7598091733 21.1177100790
Ni 24.6373284255 0.0000000000 24.6373284255
Ni 24.6373284255 1.7598091733 26.3971375988
Ni 26.3971375988 0.0000000000 26.3971375988
Ni 26.3971375988 1.7598091733 24.6373284255
Ni 24.6373284255 3.5196183465 0.0000000000
Ni 24.6373284255 5.2794275198 1.7598091733
Ni 26.3971375988 3.5196183465 1.7598091733
Ni 26.3971375988 5.2794275198 0.0000000000
Ni 24.6373284255 3.5196183465 3.5196183465
Ni 24.6373284255 5.2794275198 5.2794275198
Ni 26.3971375988 3.5196183465 5.2794275198
Ni 26.3971375988 5.2794275198 3.5196183465
Ni 24.6373284255 3.5196183465 7.0392366930
Ni 24.6373284255 5.2794275198 8.7990458663
Ni 26.3971375988 3.5196183465 8.7990458663
Ni 26.3971375988 5.2794275198 7.0392366930
Ni 24.6373284255 3.5196183465 10.5588550395
Ni 24.6373284255 5.2794275198 12.3186642128
Ni 26.3971375988 3.5196183465 12.3186642128
Ni 26.3971375988 5.2794275198 10.5588550395
Ni 24.6373284255 3.5196183465 14.0784733860
Ni 24.6373284255 5.2794275198 15.8382825593
Ni 26.3971375988 3.5196183465 15.8382825593
Ni 26.3971375988 5.2794275198 14.0784733860
Ni 24.6373284255 3.5196183465 17.5980917325
Ni 24.6373284255 5.2794275198 19.3579009058
Ni 26.3971375988 3.5196183465 19.3579009058
Ni 26.3971375988 5.2794275198 17.5980917325
Ni 24.6373284255 3.5196183465 21.1177100790
Ni 24.6373284255 5.2794275198 22.8775192523
Ni 26.3971375988 3.5196183465 22.8775192523
Ni 26.3971375988 5.2794275198 21.1177100790
Ni 24.6373284255 3.5196183465 24.6373284255
Ni 24.6373284255 5.2794275198 26.3971375988
Ni 26.3971375988 3.5196183465 26.3971375988
Ni 26.3971375988 5.2794275198 24.6373284255
Ni 24.6373284255 7.0392366930 0.0000000000
Ni 24.6373284255 8.7990458663 1.7598091733
Ni 26.3971375988 7.0392366930 1.7598091733
Ni 26.3971375988 8.7990458663 0.0000000000
Ni 24.6373284255 7.0392366930 3.5196183465
Ni 24.6373284255 8.7990458663 5.2794275198
Ni 26.3971375988 7.0392366930 5.2794275198
Ni 26.3971375988 8.7990458663 3.5196183465
Ni 24.6373284255 7.0392366930 7.0392366930
Ni 24.6373284255 8.7990458663 8.7990458663
Ni 26.3971375988 7.0392366930 8.7990458663
Ni 26.3971375988 8.7990458663 7.0392366930
Ni 24.6373284255 7.0392366930 10.5588550395
Ni 24.6373284255 8.7990458663 12.3186642128
Ni 26.3971375988 7.0392366930 12.3186642128
Ni 26.3971375988 8.7990458663 10.5588550395
Ni 24.6373284255 7.0392366930 14.0784733860
Ni 24.6373284255 8.7990458663 15.8382825593
Ni 26.3971375988 7.0392366930 15.8382825593
Ni 26.3971375988 8.7990458663 14.0784733860
Ni 24.6373284255 7.0392366930 17.5980917325
Ni 24.6373284255 8.7990458663 19.3579009058
Ni 26.3971375988 7.0392366930 19.3579009058
Ni 26.3971375988 8.7990458663 17.5980917325
Ni 24.6373284255 7.0392366930 21.1177100790
Ni 24.6373284255 8.7990458663 22.8775192523
Ni 26.3971375988 7.0392366930 22.8775192523
Ni 26.3971375988 8.7990458663 21.1177100790
Ni 24.6373284255 7.0392366930 24.6373284255
Ni 24.6373284255 8.7990458663 26.3971375988
Ni 26.3971375988 7.0392366930 26.3971375988
Ni 26.3971375988 8.7990458663 24.6373284255
Ni 24.6373284255 10.5588550395 0.0000000000
Ni 24.6373284255 12.3186642128 1.7598091733
Ni 26.3971375988 10.5588550395 1.7598091733
Ni 26.3971375988 12.3186642128 0.0000000000
Ni 24.6373284255 10.5588550395 3.5196183465
Ni 24.6373284255 12.3186642128 5.2794275198
Ni 26.3971375988 10.5588550395 5.2794275198
Ni 26.3971375988 12.3186642128 3.5196183465
Ni 24.6373284255 10.5588550395 7.0392366930
Ni 24.6373284255 12.3186642128 8.7990458663
Ni 26.3971375988 10.5588550395 8.7990458663
Ni 26.3971375988 12.3186642128 7.0392366930
Ni 24.6373284255 10.5588550395 10.5588550395
Ni 24.6373284255 12.3186642128 12.3186642128
Ni 26.3971375988 10.5588550395 12.3186642128
Ni 26.3971375988 12.3186642128 10.5588550395
Ni 24.6373284255 10.5588550395 14.0784733860
Ni 24.6373284255 12.3186642128 15.8382825593
Ni 26.3971375988 10.5588550395 15.8382825593
Ni 26.3971375988 12.3186642128 14.0784733860
Ni 24.6373284255 10.5588550395 17.5980917325
Ni 24.6373284255 12.3186642128 19.3579009058
Ni 26.3971375988 10.5588550395 19.3579009058
Ni 26.3971375988 12.3186642128 17.5980917325
Ni 24.6373284255 10.5588550395 21.1177100790
Ni 24.6373284255 12.3186642128 22.8775192523
Ni 26.3971375988 10.5588550395 22.8775192523
Ni 26.3971375988 12.3186642128 21.1177100790
Ni 24.6373284255 10.5588550395 24.6373284255
Ni 24.6373284255 12.3186642128 26.3971375988
Ni 26.3971375988 10.5588550395 26.3971375988
Ni 26.3971375988 12.3186642128 24.6373284255
Ni 24.6373284255 14.0784733860 0.0000000000
Ni 24.6373284255 15.8382825593 1.7598091733
Ni 26.3971375988 14.0784733860 1.7598091733
Ni 26.3971375988 15.8382825593 0.0000000000
Ni 24.6373284255 14.0784733860 3.5196183465
Ni 24.6373284255 15.8382825593 5.2794275198
Ni 26.3971375988 14.0784733860 5.2794275198
Ni 26.3971375988 15.8382825593 3.5196183465
Ni 24.6373284255 14.0784733860 7.0392366930
Ni 24.6373284255 15.8382825593 8.7990458663
Ni 26.3971375988 14.0784733860 8.7990458663
Ni 26.3971375988 15.8382825593 7.0392366930
Ni 24.6373284255 14.0784733860 10.5588550395
Ni 24.6373284255 15.8382825593 12.3186642128
Ni 26.3971375988 14.0784733860 12.3186642128
Ni 26.3971375988 15.8382825593 10.5588550395
Ni 24.6373284255 14.0784733860 14.0784733860
Ni 24.6373284255 15.8382825593 15.8382825593
Ni 26.3971375988 14.0784733860 15.8382825593
Ni 26.3971375988 15.8382825593 14.0784733860
Ni 24.6373284255 14.0784733860 17.5980917325
Ni 24.6373284255 15.8382825593 19.3579009058
Ni 26.3971375988 14.0784733860 19.3579009058
Ni 26.3971375988 15.8382825593 17.5980917325
Ni 24.6373284255 14.0784733860 21.1177100790
Ni 24.6373284255 15.8382825593 22.8775192523
Ni 26.3971375988 14.0784733860 22.8775192523
Ni 26.3971375988 15.8382825593 21.1177100790
Ni 24.6373284255 14.0784733860 24.6373284255
Ni 24.6373284255 15.8382825593 26.3971375988
Ni 26.3971375988 14.0784733860 26.3971375988
Ni 26.3971375988 15.8382825593 24.6373284255
Ni 24.6373284255 17.5980917325 0.0000000000
Ni 24.6373284255 19.3579009058 1.7598091733
Ni 26.3971375988 17.5980917325 1.7598091733
Ni 26.3971375988 19.3579009058 0.0000000000
Ni 24.6373284255 17.5980917325 3.5196183465
Ni 24.6373284255 19.3579009058 5.2794275198
Ni 26.3971375988 17.5980917325 5.2794275198
Ni 26.3971375988 19.3579009058 3.5196183465
Ni 24.6373284255 17.5980917325 7.0392366930
Ni 24.6373284255 19.3579009058 8.7990458663
Ni 26.3971375988 17.5980917325 8.7990458663
Ni 26.3971375988 19.3579009058 7.0392366930
Ni 24.6373284255 17.5980917325 10.5588550395
Ni 24.6373284255 19.3579009058 12.3186642128
Ni 26.3971375988 17.5980917325 12.3186642128
Ni 26.3971375988 19.3579009058 10.5588550395
Ni 24.6373284255 17.5980917325 14.0784733860
Ni 24.6373284255 19.3579009058 15.8382825593
Ni 26.3971375988 17.5980917325 15.8382825593
Ni 26.3971375988 19.3579009058 14.0784733860
Ni 24.6373284255 17.5980917325 17.5980917325
Ni 24.6373284255 19.3579009058 19.3579009058
Ni 26.3971375988 17.5980917325 19.3579009058
Ni 26.3971375988 19.3579009058 17.5980917325
Ni 24.6373284255 17.5980917325 21.1177100790
Ni 24.6373284255 19.3579009058 22.8775192523
Ni 26.3971375988 17.5980917325 22.8775192523
Ni 26.3971375988 19.3579009058 21.1177100790
Ni 24.6373284255 17.5980917325 24.6373284255
Ni 24.6373284255 19.3579009058 26.3971375988
Ni 26.3971375988 17.5980917325 26.3971375988
Ni 26.3971375988 19.3579009058 24.6373284255
Ni 24.6373284255 21.1177100790 0.0000000000
Ni 24.6373284255 22.8775192523 1.7598091733
Ni 26.3971375988 21.1177100790 1.7598091733
Ni 26.3971375988 22.8775192523 0.0000000000
Ni 24.6373284255 21.1177100790 3.5196183465
Ni 24.6373284255 22.8775192523 5.2794275198
Ni 26.3971375988 21.1177100790 5.2794275198
Ni 26.3971375988 22.8775192523 3.5196183465
Ni 24.6373284255 21.1177100790 7.0392366930
Ni 24.6373284255 22.8775192523 8.7990458663
Ni 26.3971375988 21.1177100790 8.7990458663
Ni 26.3971375988 22.8775192523 7.0392366930
Ni 24.6373284255 21.1177100790 10.5588550395
Ni 24.6373284255 22.8775192523 12.3186642128
Ni 26.3971375988 21.1177100790 12.3186642128
Ni 26.3971375988 22.8775192523 10.5588550395
Ni 24.6373284255 21.1177100790 14.0784733860
Ni 24.6373284255 22.8775192523 15.8382825593
Ni 26.3971375988 21.1177100790 15.8382825593
Ni 26.3971375988 22.8775192523 14.0784733860
Ni 24.6373284255 21.1177100790 17.5980917325
Ni 24.6373284255 22.8775192523 19.3579009058
Ni 26.3971375988 21.1177100790 19.3579009058
Ni 26.3971375988 22.8775192523 17.5980917325
Ni 24.6373284255 21.1177100790 21.1177100790
Ni 24.6373284255 22.8775192523 22.8775192523
Ni 26.3971375988 21.1177100790 22.8775192523
Ni 26.3971375988 22.8775192523 21.1177100790
Ni 24.6373284255 21.1177100790 24.6373284255
Ni 24.6373284255 22.8775192523 26.3971375988
Ni 26.3971375988 21.1177100790 26.3971375988
Ni 26.3971375988 22.8775192523 24.6373284255
Ni 24.6373284255 24.6373284255 0.0000000000
Ni 24.6373284255 26.3971375988 1.7598091733
Ni 26.3971375988 24.6373284255 1.7598091733
Ni 26.3971375988 26.3971375988 0.0000000000
Ni 24.6373284255 24.6373284255 3.5196183465
Ni 24.6373284255 26.3971375988 5.2794275198
Ni 26.3971375988 24.6373284255 5.2794275198
Ni 26.3971375988 26.3971375988 3.5196183465
Ni 24.6373284255 24.6373284255 7.0392366930
Ni 24.6373284255 26.3971375988 8.7990458663
Ni 26.3971375988 24.6373284255 8.7990458663
Ni 26.3971375988 26.3971375988 7.0392366930
Ni 24.6373284255 24.6373284255 10.5588550395
Ni 24.6373284255 26.3971375988 12.3186642128
Ni 26.3971375988 24.6373284255 12.3186642128
Ni 26.3971375988 26.3971375988 10.5588550395
Ni 24.6373284255 24.6373284255 14.0784733860
Ni 24.6373284255 26.3971375988 15.8382825593
Ni 26.3971375988 24.6373284255 15.8382825593
Ni 26.3971375988 26.3971375988 14.0784733860
Ni 24.6373284255 24.6373284255 17.5980917325
Ni 24.6373284255 26.3971375988 19.3579009058
Ni 26.3971375988 24.6373284255 19.3579009058
Ni 26.3971375988 26.3971375988 17.5980917325
Ni 24.6373284255 24.6373284255 21.1177100790
Ni 24.6373284255 26.3971375988 22.8775192523
Ni 26.3971375988 24.6373284255 22.8775192523
Ni 26.3971375988 26.3971375988 21.1177100790
Ni 24.6373284255 24.6373284255 24.6373284255
Ni 24.6373284255 26.3971375988 26.3971375988
Ni 26.3971375988 24.6373284255 26.3971375988
Ni 26.3971375988 26.3971375988 24.6373284255
